*Heading
 Solar support; see assumptions and run metadata; N mm tonne s
** Job name: Solar_012_mesh12p5 Model name: SolarSupport
** Generated by: Abaqus/CAE 2024
*Preprint, echo=NO, model=NO, history=NO, contact=NO
**
** PARTS
**
*Part, name=SteelFrame
*Node
      1,   17735.5449,   2433.50488,   2186.45581
      2,       18148.,   2433.50488,   2186.45581
      3,       18148.,   2888.94629,   2398.77441
      4,   16910.6367,   2433.50488,   2186.45581
      5,       18148.,   2134.36011,        2047.
      6,   16085.7275,   2433.50488,   2186.45581
      7,   15260.8184,   2433.50488,   2186.45581
      8,   14435.9092,   2433.50488,   2186.45581
      9,       13611.,   2433.50488,   2186.45581
     10,   12786.0908,   2433.50488,   2186.45581
     11,   11961.1816,   2433.50488,   2186.45581
     12,   11136.2725,   2433.50488,   2186.45581
     13,   10311.3633,   2433.50488,   2186.45581
     14,    9486.4541,   2433.50488,   2186.45581
     15,        9074.,   2433.50488,   2186.45581
     16,    8661.5459,   2433.50488,   2186.45581
     17,   7836.63623,   2433.50488,   2186.45581
     18,   7011.72705,   2433.50488,   2186.45581
     19,   6186.81836,   2433.50488,   2186.45581
     20,   5361.90918,   2433.50488,   2186.45581
     21,        4537.,   2433.50488,   2186.45581
     22,   3712.09082,   2433.50488,   2186.45581
     23,   2887.18188,   2433.50488,   2186.45581
     24,   2062.27271,   2433.50488,   2186.45581
     25,   1237.36365,   2433.50488,   2186.45581
     26,   412.454559,   2433.50488,   2186.45581
     27,           0.,   2433.50488,   2186.45581
     28,           0.,   2888.94629,   2398.77441
     29,       18148.,   1522.62158,    1761.8186
     30,       18148.,   611.738403,    1337.1814
     31,       18148.,           0.,        1052.
     32,       18148.,  -299.144806,   912.544128
     33,       18148.,  -754.586365,   700.225464
     34,       13611.,   2888.94629,   2398.77441
     35,       13611.,   2134.36011,        2047.
     36,       13611.,   1522.62158,    1761.8186
     37,       13611.,   611.738403,    1337.1814
     38,       13611.,           0.,        1052.
     39,       13611.,  -299.144806,   912.544128
     40,       13611.,  -754.586365,   700.225464
     41,        9074.,   2888.94629,   2398.77441
     42,        9074.,   2134.36011,        2047.
     43,        9074.,   1522.62158,    1761.8186
     44,        9074.,   611.738403,    1337.1814
     45,        9074.,           0.,        1052.
     46,        9074.,  -299.144806,   912.544128
     47,        9074.,  -754.586365,   700.225464
     48,        4537.,   2888.94629,   2398.77441
     49,        4537.,   2134.36011,        2047.
     50,        4537.,   1522.62158,    1761.8186
     51,        4537.,   611.738403,    1337.1814
     52,        4537.,           0.,        1052.
     53,        4537.,  -299.144806,   912.544128
     54,        4537.,  -754.586365,   700.225464
     55,           0.,   2134.36011,        2047.
     56,           0.,   1522.62158,    1761.8186
     57,           0.,   611.738403,    1337.1814
     58,           0.,           0.,        1052.
     59,           0.,  -299.144806,   912.544128
     60,           0.,  -754.586365,   700.225464
     61,       18148.,   2134.36011,   416.769989
     62,       18148.,   2134.36011,           0.
     63,   17735.5449,   1522.62158,    1761.8186
     64,   16910.6367,   1522.62158,    1761.8186
     65,   16085.7275,   1522.62158,    1761.8186
     66,   15260.8184,   1522.62158,    1761.8186
     67,   14435.9092,   1522.62158,    1761.8186
     68,   12786.0908,   1522.62158,    1761.8186
     69,   11961.1816,   1522.62158,    1761.8186
     70,   11136.2725,   1522.62158,    1761.8186
     71,   10311.3633,   1522.62158,    1761.8186
     72,    9486.4541,   1522.62158,    1761.8186
     73,    8661.5459,   1522.62158,    1761.8186
     74,   7836.63623,   1522.62158,    1761.8186
     75,   7011.72705,   1522.62158,    1761.8186
     76,   6186.81836,   1522.62158,    1761.8186
     77,   5361.90918,   1522.62158,    1761.8186
     78,   3712.09082,   1522.62158,    1761.8186
     79,   2887.18188,   1522.62158,    1761.8186
     80,   2062.27271,   1522.62158,    1761.8186
     81,   1237.36365,   1522.62158,    1761.8186
     82,   412.454559,   1522.62158,    1761.8186
     83,   17735.5449,   611.738403,    1337.1814
     84,   16910.6367,   611.738403,    1337.1814
     85,   16085.7275,   611.738403,    1337.1814
     86,   15260.8184,   611.738403,    1337.1814
     87,   14435.9092,   611.738403,    1337.1814
     88,   12786.0908,   611.738403,    1337.1814
     89,   11961.1816,   611.738403,    1337.1814
     90,   11136.2725,   611.738403,    1337.1814
     91,   10311.3633,   611.738403,    1337.1814
     92,    9486.4541,   611.738403,    1337.1814
     93,    8661.5459,   611.738403,    1337.1814
     94,   7836.63623,   611.738403,    1337.1814
     95,   7011.72705,   611.738403,    1337.1814
     96,   6186.81836,   611.738403,    1337.1814
     97,   5361.90918,   611.738403,    1337.1814
     98,   3712.09082,   611.738403,    1337.1814
     99,   2887.18188,   611.738403,    1337.1814
    100,   2062.27271,   611.738403,    1337.1814
    101,   1237.36365,   611.738403,    1337.1814
    102,   412.454559,   611.738403,    1337.1814
    103,       18148.,           0.,         927.
    104,       18148.,           0.,           0.
    105,   17735.5449,  -299.144806,   912.544128
    106,   16910.6367,  -299.144806,   912.544128
    107,   16085.7275,  -299.144806,   912.544128
    108,   15260.8184,  -299.144806,   912.544128
    109,   14435.9092,  -299.144806,   912.544128
    110,   12786.0908,  -299.144806,   912.544128
    111,   11961.1816,  -299.144806,   912.544128
    112,   11136.2725,  -299.144806,   912.544128
    113,   10311.3633,  -299.144806,   912.544128
    114,    9486.4541,  -299.144806,   912.544128
    115,    8661.5459,  -299.144806,   912.544128
    116,   7836.63623,  -299.144806,   912.544128
    117,   7011.72705,  -299.144806,   912.544128
    118,   6186.81836,  -299.144806,   912.544128
    119,   5361.90918,  -299.144806,   912.544128
    120,   3712.09082,  -299.144806,   912.544128
    121,   2887.18188,  -299.144806,   912.544128
    122,   2062.27271,  -299.144806,   912.544128
    123,   1237.36365,  -299.144806,   912.544128
    124,   412.454559,  -299.144806,   912.544128
    125,       13611.,   2134.36011,   416.769989
    126,       13611.,   2134.36011,           0.
    127,       13611.,           0.,         927.
    128,       13611.,           0.,           0.
    129,        9074.,   2134.36011,   416.769989
    130,        9074.,   2134.36011,           0.
    131,        9074.,           0.,         927.
    132,        9074.,           0.,           0.
    133,        4537.,   2134.36011,   416.769989
    134,        4537.,   2134.36011,           0.
    135,        4537.,           0.,         927.
    136,        4537.,           0.,           0.
    137,           0.,   2134.36011,   416.769989
    138,           0.,   2134.36011,           0.
    139,           0.,           0.,         927.
    140,           0.,           0.,           0.
    141,   17748.0449,   2433.50488,   2186.45581
    142,    17760.543,   2433.50488,   2186.45581
    143,    17773.041,   2433.50488,   2186.45581
    144,   17785.5391,   2433.50488,   2186.45581
    145,   17798.0391,   2433.50488,   2186.45581
    146,   17810.5371,   2433.50488,   2186.45581
    147,   17823.0352,   2433.50488,   2186.45581
    148,   17835.5352,   2433.50488,   2186.45581
    149,   17848.0332,   2433.50488,   2186.45581
    150,   17860.5312,   2433.50488,   2186.45581
    151,   17873.0312,   2433.50488,   2186.45581
    152,   17885.5293,   2433.50488,   2186.45581
    153,   17898.0273,   2433.50488,   2186.45581
    154,   17910.5254,   2433.50488,   2186.45581
    155,   17923.0254,   2433.50488,   2186.45581
    156,   17935.5234,   2433.50488,   2186.45581
    157,   17948.0215,   2433.50488,   2186.45581
    158,   17960.5215,   2433.50488,   2186.45581
    159,   17973.0195,   2433.50488,   2186.45581
    160,   17985.5176,   2433.50488,   2186.45581
    161,   17998.0156,   2433.50488,   2186.45581
    162,   18010.5156,   2433.50488,   2186.45581
    163,   18023.0137,   2433.50488,   2186.45581
    164,   18035.5117,   2433.50488,   2186.45581
    165,   18048.0117,   2433.50488,   2186.45581
    166,   18060.5098,   2433.50488,   2186.45581
    167,   18073.0078,   2433.50488,   2186.45581
    168,   18085.5078,   2433.50488,   2186.45581
    169,   18098.0059,   2433.50488,   2186.45581
    170,   18110.5039,   2433.50488,   2186.45581
    171,    18123.002,   2433.50488,   2186.45581
    172,    18135.502,   2433.50488,   2186.45581
    173,       18148.,   2444.89087,   2191.76392
    174,       18148.,   2456.27686,   2197.07178
    175,       18148.,   2467.66284,   2202.37988
    176,       18148.,   2479.04907,   2207.68774
    177,       18148.,   2490.43506,   2212.99561
    178,       18148.,   2501.82104,   2218.30371
    179,       18148.,   2513.20703,   2223.61157
    180,       18148.,   2524.59302,   2228.91968
    181,       18148.,   2535.97925,   2234.22754
    182,       18148.,   2547.36523,   2239.53564
    183,       18148.,   2558.75122,   2244.84351
    184,       18148.,   2570.13721,   2250.15137
    185,       18148.,   2581.52319,   2255.45947
    186,       18148.,   2592.90942,   2260.76733
    187,       18148.,   2604.29541,   2266.07544
    188,       18148.,    2615.6814,    2271.3833
    189,       18148.,   2627.06738,   2276.69141
    190,       18148.,   2638.45361,   2281.99927
    191,       18148.,    2649.8396,   2287.30713
    192,       18148.,   2661.22559,   2292.61523
    193,       18148.,   2672.61157,    2297.9231
    194,       18148.,   2683.99756,    2303.2312
    195,       18148.,   2695.38379,   2308.53906
    196,       18148.,   2706.76978,   2313.84717
    197,       18148.,   2718.15576,   2319.15503
    198,       18148.,   2729.54175,   2324.46289
    199,       18148.,   2740.92798,     2329.771
    200,       18148.,   2752.31396,   2335.07886
    201,       18148.,   2763.69995,   2340.38696
    202,       18148.,   2775.08594,   2345.69482
    203,       18148.,   2786.47192,   2351.00293
    204,       18148.,   2797.85815,   2356.31079
    205,       18148.,   2809.24414,   2361.61865
    206,       18148.,   2820.63013,   2366.92676
    207,       18148.,   2832.01611,   2372.23462
    208,       18148.,   2843.40234,   2377.54272
    209,       18148.,   2854.78833,   2382.85059
    210,       18148.,   2866.17432,   2388.15869
    211,       18148.,    2877.5603,   2393.46655
    212,   16923.1348,   2433.50488,   2186.45581
    213,   16935.6328,   2433.50488,   2186.45581
    214,   16948.1328,   2433.50488,   2186.45581
    215,   16960.6309,   2433.50488,   2186.45581
    216,   16973.1289,   2433.50488,   2186.45581
    217,   16985.6289,   2433.50488,   2186.45581
    218,    16998.127,   2433.50488,   2186.45581
    219,    17010.625,   2433.50488,   2186.45581
    220,    17023.123,   2433.50488,   2186.45581
    221,    17035.623,   2433.50488,   2186.45581
    222,   17048.1211,   2433.50488,   2186.45581
    223,   17060.6191,   2433.50488,   2186.45581
    224,   17073.1191,   2433.50488,   2186.45581
    225,   17085.6172,   2433.50488,   2186.45581
    226,   17098.1152,   2433.50488,   2186.45581
    227,   17110.6152,   2433.50488,   2186.45581
    228,   17123.1133,   2433.50488,   2186.45581
    229,   17135.6113,   2433.50488,   2186.45581
    230,   17148.1094,   2433.50488,   2186.45581
    231,   17160.6094,   2433.50488,   2186.45581
    232,   17173.1074,   2433.50488,   2186.45581
    233,   17185.6055,   2433.50488,   2186.45581
    234,   17198.1055,   2433.50488,   2186.45581
    235,   17210.6035,   2433.50488,   2186.45581
    236,   17223.1016,   2433.50488,   2186.45581
    237,   17235.5996,   2433.50488,   2186.45581
    238,   17248.0996,   2433.50488,   2186.45581
    239,   17260.5977,   2433.50488,   2186.45581
    240,   17273.0957,   2433.50488,   2186.45581
    241,   17285.5957,   2433.50488,   2186.45581
    242,   17298.0938,   2433.50488,   2186.45581
    243,   17310.5918,   2433.50488,   2186.45581
    244,   17323.0918,   2433.50488,   2186.45581
    245,   17335.5898,   2433.50488,   2186.45581
    246,   17348.0879,   2433.50488,   2186.45581
    247,   17360.5859,   2433.50488,   2186.45581
    248,   17373.0859,   2433.50488,   2186.45581
    249,    17385.584,   2433.50488,   2186.45581
    250,    17398.082,   2433.50488,   2186.45581
    251,    17410.582,   2433.50488,   2186.45581
    252,   17423.0801,   2433.50488,   2186.45581
    253,   17435.5781,   2433.50488,   2186.45581
    254,   17448.0762,   2433.50488,   2186.45581
    255,   17460.5762,   2433.50488,   2186.45581
    256,   17473.0742,   2433.50488,   2186.45581
    257,   17485.5723,   2433.50488,   2186.45581
    258,   17498.0723,   2433.50488,   2186.45581
    259,   17510.5703,   2433.50488,   2186.45581
    260,   17523.0684,   2433.50488,   2186.45581
    261,   17535.5684,   2433.50488,   2186.45581
    262,   17548.0664,   2433.50488,   2186.45581
    263,   17560.5645,   2433.50488,   2186.45581
    264,   17573.0625,   2433.50488,   2186.45581
    265,   17585.5625,   2433.50488,   2186.45581
    266,   17598.0605,   2433.50488,   2186.45581
    267,   17610.5586,   2433.50488,   2186.45581
    268,   17623.0586,   2433.50488,   2186.45581
    269,   17635.5566,   2433.50488,   2186.45581
    270,   17648.0547,   2433.50488,   2186.45581
    271,   17660.5547,   2433.50488,   2186.45581
    272,   17673.0527,   2433.50488,   2186.45581
    273,   17685.5508,   2433.50488,   2186.45581
    274,   17698.0488,   2433.50488,   2186.45581
    275,   17710.5488,   2433.50488,   2186.45581
    276,   17723.0469,   2433.50488,   2186.45581
    277,       18148.,   2145.86548,   2052.36377
    278,       18148.,   2157.37109,   2057.72729
    279,       18148.,   2168.87671,   2063.09106
    280,       18148.,   2180.38232,   2068.45483
    281,       18148.,   2191.88794,   2073.81836
    282,       18148.,   2203.39331,   2079.18213
    283,       18148.,   2214.89893,    2084.5459
    284,       18148.,   2226.40454,   2089.90942
    285,       18148.,   2237.91016,   2095.27319
    286,       18148.,   2249.41577,   2100.63696
    287,       18148.,   2260.92114,   2106.00049
    288,       18148.,   2272.42676,   2111.36426
    289,       18148.,   2283.93237,   2116.72803
    290,       18148.,   2295.43799,   2122.09155
    291,       18148.,    2306.9436,   2127.45532
    292,       18148.,   2318.44922,   2132.81909
    293,       18148.,   2329.95459,   2138.18262
    294,       18148.,   2341.46021,   2143.54639
    295,       18148.,   2352.96582,   2148.91016
    296,       18148.,   2364.47144,   2154.27368
    297,       18148.,   2375.97705,   2159.63745
    298,       18148.,   2387.48242,   2165.00122
    299,       18148.,   2398.98804,   2170.36475
    300,       18148.,   2410.49365,   2175.72852
    301,       18148.,   2421.99927,   2181.09229
    302,   16098.2256,   2433.50488,   2186.45581
    303,   16110.7246,   2433.50488,   2186.45581
    304,   16123.2227,   2433.50488,   2186.45581
    305,   16135.7217,   2433.50488,   2186.45581
    306,   16148.2207,   2433.50488,   2186.45581
    307,   16160.7188,   2433.50488,   2186.45581
    308,   16173.2178,   2433.50488,   2186.45581
    309,   16185.7158,   2433.50488,   2186.45581
    310,   16198.2148,   2433.50488,   2186.45581
    311,   16210.7139,   2433.50488,   2186.45581
    312,   16223.2119,   2433.50488,   2186.45581
    313,   16235.7109,   2433.50488,   2186.45581
    314,    16248.209,   2433.50488,   2186.45581
    315,    16260.708,   2433.50488,   2186.45581
    316,    16273.207,   2433.50488,   2186.45581
    317,   16285.7051,   2433.50488,   2186.45581
    318,   16298.2041,   2433.50488,   2186.45581
    319,   16310.7021,   2433.50488,   2186.45581
    320,   16323.2012,   2433.50488,   2186.45581
    321,   16335.7002,   2433.50488,   2186.45581
    322,   16348.1982,   2433.50488,   2186.45581
    323,   16360.6973,   2433.50488,   2186.45581
    324,   16373.1953,   2433.50488,   2186.45581
    325,   16385.6934,   2433.50488,   2186.45581
    326,   16398.1934,   2433.50488,   2186.45581
    327,   16410.6914,   2433.50488,   2186.45581
    328,   16423.1895,   2433.50488,   2186.45581
    329,   16435.6895,   2433.50488,   2186.45581
    330,   16448.1875,   2433.50488,   2186.45581
    331,   16460.6855,   2433.50488,   2186.45581
    332,   16473.1855,   2433.50488,   2186.45581
    333,   16485.6836,   2433.50488,   2186.45581
    334,   16498.1816,   2433.50488,   2186.45581
    335,   16510.6797,   2433.50488,   2186.45581
    336,   16523.1797,   2433.50488,   2186.45581
    337,   16535.6777,   2433.50488,   2186.45581
    338,   16548.1758,   2433.50488,   2186.45581
    339,   16560.6758,   2433.50488,   2186.45581
    340,   16573.1738,   2433.50488,   2186.45581
    341,   16585.6719,   2433.50488,   2186.45581
    342,   16598.1699,   2433.50488,   2186.45581
    343,   16610.6699,   2433.50488,   2186.45581
    344,    16623.168,   2433.50488,   2186.45581
    345,    16635.666,   2433.50488,   2186.45581
    346,    16648.166,   2433.50488,   2186.45581
    347,   16660.6641,   2433.50488,   2186.45581
    348,   16673.1621,   2433.50488,   2186.45581
    349,   16685.6621,   2433.50488,   2186.45581
    350,   16698.1602,   2433.50488,   2186.45581
    351,   16710.6582,   2433.50488,   2186.45581
    352,   16723.1562,   2433.50488,   2186.45581
    353,   16735.6562,   2433.50488,   2186.45581
    354,   16748.1543,   2433.50488,   2186.45581
    355,   16760.6523,   2433.50488,   2186.45581
    356,   16773.1523,   2433.50488,   2186.45581
    357,   16785.6504,   2433.50488,   2186.45581
    358,   16798.1484,   2433.50488,   2186.45581
    359,   16810.6465,   2433.50488,   2186.45581
    360,   16823.1465,   2433.50488,   2186.45581
    361,   16835.6445,   2433.50488,   2186.45581
    362,   16848.1426,   2433.50488,   2186.45581
    363,   16860.6426,   2433.50488,   2186.45581
    364,   16873.1406,   2433.50488,   2186.45581
    365,   16885.6387,   2433.50488,   2186.45581
    366,   16898.1387,   2433.50488,   2186.45581
    367,   15273.3164,   2433.50488,   2186.45581
    368,   15285.8154,   2433.50488,   2186.45581
    369,   15298.3145,   2433.50488,   2186.45581
    370,   15310.8125,   2433.50488,   2186.45581
    371,   15323.3115,   2433.50488,   2186.45581
    372,   15335.8096,   2433.50488,   2186.45581
    373,   15348.3086,   2433.50488,   2186.45581
    374,   15360.8076,   2433.50488,   2186.45581
    375,   15373.3057,   2433.50488,   2186.45581
    376,   15385.8047,   2433.50488,   2186.45581
    377,   15398.3027,   2433.50488,   2186.45581
    378,   15410.8018,   2433.50488,   2186.45581
    379,   15423.2998,   2433.50488,   2186.45581
    380,   15435.7988,   2433.50488,   2186.45581
    381,   15448.2979,   2433.50488,   2186.45581
    382,   15460.7959,   2433.50488,   2186.45581
    383,   15473.2949,   2433.50488,   2186.45581
    384,    15485.793,   2433.50488,   2186.45581
    385,    15498.292,   2433.50488,   2186.45581
    386,    15510.791,   2433.50488,   2186.45581
    387,   15523.2891,   2433.50488,   2186.45581
    388,   15535.7881,   2433.50488,   2186.45581
    389,   15548.2861,   2433.50488,   2186.45581
    390,   15560.7852,   2433.50488,   2186.45581
    391,   15573.2842,   2433.50488,   2186.45581
    392,   15585.7822,   2433.50488,   2186.45581
    393,   15598.2812,   2433.50488,   2186.45581
    394,   15610.7793,   2433.50488,   2186.45581
    395,   15623.2783,   2433.50488,   2186.45581
    396,   15635.7773,   2433.50488,   2186.45581
    397,   15648.2754,   2433.50488,   2186.45581
    398,   15660.7744,   2433.50488,   2186.45581
    399,   15673.2725,   2433.50488,   2186.45581
    400,   15685.7715,   2433.50488,   2186.45581
    401,   15698.2695,   2433.50488,   2186.45581
    402,   15710.7686,   2433.50488,   2186.45581
    403,   15723.2676,   2433.50488,   2186.45581
    404,   15735.7656,   2433.50488,   2186.45581
    405,   15748.2646,   2433.50488,   2186.45581
    406,   15760.7627,   2433.50488,   2186.45581
    407,   15773.2617,   2433.50488,   2186.45581
    408,   15785.7607,   2433.50488,   2186.45581
    409,   15798.2588,   2433.50488,   2186.45581
    410,   15810.7578,   2433.50488,   2186.45581
    411,   15823.2559,   2433.50488,   2186.45581
    412,   15835.7549,   2433.50488,   2186.45581
    413,   15848.2539,   2433.50488,   2186.45581
    414,    15860.752,   2433.50488,   2186.45581
    415,    15873.251,   2433.50488,   2186.45581
    416,    15885.749,   2433.50488,   2186.45581
    417,    15898.248,   2433.50488,   2186.45581
    418,   15910.7461,   2433.50488,   2186.45581
    419,   15923.2451,   2433.50488,   2186.45581
    420,   15935.7441,   2433.50488,   2186.45581
    421,   15948.2422,   2433.50488,   2186.45581
    422,   15960.7412,   2433.50488,   2186.45581
    423,   15973.2393,   2433.50488,   2186.45581
    424,   15985.7383,   2433.50488,   2186.45581
    425,   15998.2373,   2433.50488,   2186.45581
    426,   16010.7354,   2433.50488,   2186.45581
    427,   16023.2344,   2433.50488,   2186.45581
    428,   16035.7324,   2433.50488,   2186.45581
    429,   16048.2314,   2433.50488,   2186.45581
    430,   16060.7305,   2433.50488,   2186.45581
    431,   16073.2285,   2433.50488,   2186.45581
    432,   14448.4072,   2433.50488,   2186.45581
    433,   14460.9062,   2433.50488,   2186.45581
    434,   14473.4053,   2433.50488,   2186.45581
    435,   14485.9033,   2433.50488,   2186.45581
    436,   14498.4023,   2433.50488,   2186.45581
    437,   14510.9004,   2433.50488,   2186.45581
    438,   14523.3994,   2433.50488,   2186.45581
    439,   14535.8984,   2433.50488,   2186.45581
    440,   14548.3965,   2433.50488,   2186.45581
    441,   14560.8955,   2433.50488,   2186.45581
    442,   14573.3936,   2433.50488,   2186.45581
    443,   14585.8926,   2433.50488,   2186.45581
    444,   14598.3916,   2433.50488,   2186.45581
    445,   14610.8896,   2433.50488,   2186.45581
    446,   14623.3887,   2433.50488,   2186.45581
    447,   14635.8867,   2433.50488,   2186.45581
    448,   14648.3857,   2433.50488,   2186.45581
    449,   14660.8848,   2433.50488,   2186.45581
    450,   14673.3828,   2433.50488,   2186.45581
    451,   14685.8818,   2433.50488,   2186.45581
    452,   14698.3799,   2433.50488,   2186.45581
    453,   14710.8789,   2433.50488,   2186.45581
    454,    14723.377,   2433.50488,   2186.45581
    455,    14735.876,   2433.50488,   2186.45581
    456,    14748.375,   2433.50488,   2186.45581
    457,    14760.873,   2433.50488,   2186.45581
    458,   14773.3721,   2433.50488,   2186.45581
    459,   14785.8701,   2433.50488,   2186.45581
    460,   14798.3691,   2433.50488,   2186.45581
    461,   14810.8682,   2433.50488,   2186.45581
    462,   14823.3662,   2433.50488,   2186.45581
    463,   14835.8652,   2433.50488,   2186.45581
    464,   14848.3633,   2433.50488,   2186.45581
    465,   14860.8623,   2433.50488,   2186.45581
    466,   14873.3613,   2433.50488,   2186.45581
    467,   14885.8594,   2433.50488,   2186.45581
    468,   14898.3584,   2433.50488,   2186.45581
    469,   14910.8564,   2433.50488,   2186.45581
    470,   14923.3555,   2433.50488,   2186.45581
    471,   14935.8535,   2433.50488,   2186.45581
    472,   14948.3525,   2433.50488,   2186.45581
    473,   14960.8516,   2433.50488,   2186.45581
    474,   14973.3496,   2433.50488,   2186.45581
    475,   14985.8486,   2433.50488,   2186.45581
    476,   14998.3467,   2433.50488,   2186.45581
    477,   15010.8457,   2433.50488,   2186.45581
    478,   15023.3447,   2433.50488,   2186.45581
    479,   15035.8428,   2433.50488,   2186.45581
    480,   15048.3418,   2433.50488,   2186.45581
    481,   15060.8398,   2433.50488,   2186.45581
    482,   15073.3389,   2433.50488,   2186.45581
    483,   15085.8379,   2433.50488,   2186.45581
    484,   15098.3359,   2433.50488,   2186.45581
    485,    15110.835,   2433.50488,   2186.45581
    486,    15123.333,   2433.50488,   2186.45581
    487,    15135.832,   2433.50488,   2186.45581
    488,   15148.3311,   2433.50488,   2186.45581
    489,   15160.8291,   2433.50488,   2186.45581
    490,   15173.3281,   2433.50488,   2186.45581
    491,   15185.8262,   2433.50488,   2186.45581
    492,   15198.3252,   2433.50488,   2186.45581
    493,   15210.8232,   2433.50488,   2186.45581
    494,   15223.3223,   2433.50488,   2186.45581
    495,   15235.8213,   2433.50488,   2186.45581
    496,   15248.3193,   2433.50488,   2186.45581
    497,    13623.499,   2433.50488,   2186.45581
    498,   13635.9971,   2433.50488,   2186.45581
    499,   13648.4961,   2433.50488,   2186.45581
    500,   13660.9941,   2433.50488,   2186.45581
    501,   13673.4932,   2433.50488,   2186.45581
    502,   13685.9922,   2433.50488,   2186.45581
    503,   13698.4902,   2433.50488,   2186.45581
    504,   13710.9893,   2433.50488,   2186.45581
    505,   13723.4873,   2433.50488,   2186.45581
    506,   13735.9863,   2433.50488,   2186.45581
    507,   13748.4844,   2433.50488,   2186.45581
    508,   13760.9834,   2433.50488,   2186.45581
    509,   13773.4824,   2433.50488,   2186.45581
    510,   13785.9805,   2433.50488,   2186.45581
    511,   13798.4795,   2433.50488,   2186.45581
    512,   13810.9775,   2433.50488,   2186.45581
    513,   13823.4766,   2433.50488,   2186.45581
    514,   13835.9756,   2433.50488,   2186.45581
    515,   13848.4736,   2433.50488,   2186.45581
    516,   13860.9727,   2433.50488,   2186.45581
    517,   13873.4707,   2433.50488,   2186.45581
    518,   13885.9697,   2433.50488,   2186.45581
    519,   13898.4688,   2433.50488,   2186.45581
    520,   13910.9668,   2433.50488,   2186.45581
    521,   13923.4658,   2433.50488,   2186.45581
    522,   13935.9639,   2433.50488,   2186.45581
    523,   13948.4629,   2433.50488,   2186.45581
    524,   13960.9619,   2433.50488,   2186.45581
    525,     13973.46,   2433.50488,   2186.45581
    526,    13985.959,   2433.50488,   2186.45581
    527,    13998.457,   2433.50488,   2186.45581
    528,   14010.9561,   2433.50488,   2186.45581
    529,   14023.4541,   2433.50488,   2186.45581
    530,   14035.9531,   2433.50488,   2186.45581
    531,   14048.4521,   2433.50488,   2186.45581
    532,   14060.9502,   2433.50488,   2186.45581
    533,   14073.4492,   2433.50488,   2186.45581
    534,   14085.9473,   2433.50488,   2186.45581
    535,   14098.4463,   2433.50488,   2186.45581
    536,   14110.9453,   2433.50488,   2186.45581
    537,   14123.4434,   2433.50488,   2186.45581
    538,   14135.9424,   2433.50488,   2186.45581
    539,   14148.4404,   2433.50488,   2186.45581
    540,   14160.9395,   2433.50488,   2186.45581
    541,   14173.4385,   2433.50488,   2186.45581
    542,   14185.9365,   2433.50488,   2186.45581
    543,   14198.4355,   2433.50488,   2186.45581
    544,   14210.9336,   2433.50488,   2186.45581
    545,   14223.4326,   2433.50488,   2186.45581
    546,   14235.9307,   2433.50488,   2186.45581
    547,   14248.4297,   2433.50488,   2186.45581
    548,   14260.9287,   2433.50488,   2186.45581
    549,   14273.4268,   2433.50488,   2186.45581
    550,   14285.9258,   2433.50488,   2186.45581
    551,   14298.4238,   2433.50488,   2186.45581
    552,   14310.9229,   2433.50488,   2186.45581
    553,   14323.4219,   2433.50488,   2186.45581
    554,   14335.9199,   2433.50488,   2186.45581
    555,   14348.4189,   2433.50488,   2186.45581
    556,    14360.917,   2433.50488,   2186.45581
    557,    14373.416,   2433.50488,   2186.45581
    558,    14385.915,   2433.50488,   2186.45581
    559,   14398.4131,   2433.50488,   2186.45581
    560,   14410.9121,   2433.50488,   2186.45581
    561,   14423.4102,   2433.50488,   2186.45581
    562,   12798.5898,   2433.50488,   2186.45581
    563,   12811.0879,   2433.50488,   2186.45581
    564,   12823.5869,   2433.50488,   2186.45581
    565,    12836.085,   2433.50488,   2186.45581
    566,    12848.584,   2433.50488,   2186.45581
    567,    12861.083,   2433.50488,   2186.45581
    568,   12873.5811,   2433.50488,   2186.45581
    569,   12886.0801,   2433.50488,   2186.45581
    570,   12898.5781,   2433.50488,   2186.45581
    571,   12911.0771,   2433.50488,   2186.45581
    572,   12923.5762,   2433.50488,   2186.45581
    573,   12936.0742,   2433.50488,   2186.45581
    574,   12948.5732,   2433.50488,   2186.45581
    575,   12961.0713,   2433.50488,   2186.45581
    576,   12973.5703,   2433.50488,   2186.45581
    577,   12986.0693,   2433.50488,   2186.45581
    578,   12998.5674,   2433.50488,   2186.45581
    579,   13011.0664,   2433.50488,   2186.45581
    580,   13023.5645,   2433.50488,   2186.45581
    581,   13036.0635,   2433.50488,   2186.45581
    582,   13048.5615,   2433.50488,   2186.45581
    583,   13061.0605,   2433.50488,   2186.45581
    584,   13073.5596,   2433.50488,   2186.45581
    585,   13086.0576,   2433.50488,   2186.45581
    586,   13098.5566,   2433.50488,   2186.45581
    587,   13111.0547,   2433.50488,   2186.45581
    588,   13123.5537,   2433.50488,   2186.45581
    589,   13136.0527,   2433.50488,   2186.45581
    590,   13148.5508,   2433.50488,   2186.45581
    591,   13161.0498,   2433.50488,   2186.45581
    592,   13173.5479,   2433.50488,   2186.45581
    593,   13186.0469,   2433.50488,   2186.45581
    594,   13198.5459,   2433.50488,   2186.45581
    595,   13211.0439,   2433.50488,   2186.45581
    596,    13223.543,   2433.50488,   2186.45581
    597,    13236.041,   2433.50488,   2186.45581
    598,     13248.54,   2433.50488,   2186.45581
    599,   13261.0381,   2433.50488,   2186.45581
    600,   13273.5371,   2433.50488,   2186.45581
    601,   13286.0361,   2433.50488,   2186.45581
    602,   13298.5342,   2433.50488,   2186.45581
    603,   13311.0332,   2433.50488,   2186.45581
    604,   13323.5312,   2433.50488,   2186.45581
    605,   13336.0303,   2433.50488,   2186.45581
    606,   13348.5293,   2433.50488,   2186.45581
    607,   13361.0273,   2433.50488,   2186.45581
    608,   13373.5264,   2433.50488,   2186.45581
    609,   13386.0244,   2433.50488,   2186.45581
    610,   13398.5234,   2433.50488,   2186.45581
    611,   13411.0225,   2433.50488,   2186.45581
    612,   13423.5205,   2433.50488,   2186.45581
    613,   13436.0195,   2433.50488,   2186.45581
    614,   13448.5176,   2433.50488,   2186.45581
    615,   13461.0166,   2433.50488,   2186.45581
    616,   13473.5156,   2433.50488,   2186.45581
    617,   13486.0137,   2433.50488,   2186.45581
    618,   13498.5127,   2433.50488,   2186.45581
    619,   13511.0107,   2433.50488,   2186.45581
    620,   13523.5098,   2433.50488,   2186.45581
    621,   13536.0078,   2433.50488,   2186.45581
    622,   13548.5068,   2433.50488,   2186.45581
    623,   13561.0059,   2433.50488,   2186.45581
    624,   13573.5039,   2433.50488,   2186.45581
    625,   13586.0029,   2433.50488,   2186.45581
    626,    13598.501,   2433.50488,   2186.45581
    627,   11973.6807,   2433.50488,   2186.45581
    628,   11986.1787,   2433.50488,   2186.45581
    629,   11998.6777,   2433.50488,   2186.45581
    630,   12011.1768,   2433.50488,   2186.45581
    631,   12023.6748,   2433.50488,   2186.45581
    632,   12036.1738,   2433.50488,   2186.45581
    633,   12048.6719,   2433.50488,   2186.45581
    634,   12061.1709,   2433.50488,   2186.45581
    635,   12073.6689,   2433.50488,   2186.45581
    636,    12086.168,   2433.50488,   2186.45581
    637,    12098.667,   2433.50488,   2186.45581
    638,    12111.165,   2433.50488,   2186.45581
    639,   12123.6641,   2433.50488,   2186.45581
    640,   12136.1621,   2433.50488,   2186.45581
    641,   12148.6611,   2433.50488,   2186.45581
    642,   12161.1602,   2433.50488,   2186.45581
    643,   12173.6582,   2433.50488,   2186.45581
    644,   12186.1572,   2433.50488,   2186.45581
    645,   12198.6553,   2433.50488,   2186.45581
    646,   12211.1543,   2433.50488,   2186.45581
    647,   12223.6533,   2433.50488,   2186.45581
    648,   12236.1514,   2433.50488,   2186.45581
    649,   12248.6504,   2433.50488,   2186.45581
    650,   12261.1484,   2433.50488,   2186.45581
    651,   12273.6475,   2433.50488,   2186.45581
    652,   12286.1465,   2433.50488,   2186.45581
    653,   12298.6445,   2433.50488,   2186.45581
    654,   12311.1436,   2433.50488,   2186.45581
    655,   12323.6416,   2433.50488,   2186.45581
    656,   12336.1406,   2433.50488,   2186.45581
    657,   12348.6387,   2433.50488,   2186.45581
    658,   12361.1377,   2433.50488,   2186.45581
    659,   12373.6367,   2433.50488,   2186.45581
    660,   12386.1348,   2433.50488,   2186.45581
    661,   12398.6338,   2433.50488,   2186.45581
    662,   12411.1318,   2433.50488,   2186.45581
    663,   12423.6309,   2433.50488,   2186.45581
    664,   12436.1299,   2433.50488,   2186.45581
    665,   12448.6279,   2433.50488,   2186.45581
    666,    12461.127,   2433.50488,   2186.45581
    667,    12473.625,   2433.50488,   2186.45581
    668,    12486.124,   2433.50488,   2186.45581
    669,    12498.623,   2433.50488,   2186.45581
    670,   12511.1211,   2433.50488,   2186.45581
    671,   12523.6201,   2433.50488,   2186.45581
    672,   12536.1182,   2433.50488,   2186.45581
    673,   12548.6172,   2433.50488,   2186.45581
    674,   12561.1152,   2433.50488,   2186.45581
    675,   12573.6143,   2433.50488,   2186.45581
    676,   12586.1133,   2433.50488,   2186.45581
    677,   12598.6113,   2433.50488,   2186.45581
    678,   12611.1104,   2433.50488,   2186.45581
    679,   12623.6084,   2433.50488,   2186.45581
    680,   12636.1074,   2433.50488,   2186.45581
    681,   12648.6064,   2433.50488,   2186.45581
    682,   12661.1045,   2433.50488,   2186.45581
    683,   12673.6035,   2433.50488,   2186.45581
    684,   12686.1016,   2433.50488,   2186.45581
    685,   12698.6006,   2433.50488,   2186.45581
    686,   12711.0996,   2433.50488,   2186.45581
    687,   12723.5977,   2433.50488,   2186.45581
    688,   12736.0967,   2433.50488,   2186.45581
    689,   12748.5947,   2433.50488,   2186.45581
    690,   12761.0938,   2433.50488,   2186.45581
    691,   12773.5928,   2433.50488,   2186.45581
    692,   11148.7715,   2433.50488,   2186.45581
    693,   11161.2695,   2433.50488,   2186.45581
    694,   11173.7686,   2433.50488,   2186.45581
    695,   11186.2676,   2433.50488,   2186.45581
    696,   11198.7656,   2433.50488,   2186.45581
    697,   11211.2646,   2433.50488,   2186.45581
    698,   11223.7627,   2433.50488,   2186.45581
    699,   11236.2617,   2433.50488,   2186.45581
    700,   11248.7607,   2433.50488,   2186.45581
    701,   11261.2588,   2433.50488,   2186.45581
    702,   11273.7578,   2433.50488,   2186.45581
    703,   11286.2559,   2433.50488,   2186.45581
    704,   11298.7549,   2433.50488,   2186.45581
    705,   11311.2539,   2433.50488,   2186.45581
    706,    11323.752,   2433.50488,   2186.45581
    707,    11336.251,   2433.50488,   2186.45581
    708,    11348.749,   2433.50488,   2186.45581
    709,    11361.248,   2433.50488,   2186.45581
    710,   11373.7461,   2433.50488,   2186.45581
    711,   11386.2451,   2433.50488,   2186.45581
    712,   11398.7441,   2433.50488,   2186.45581
    713,   11411.2422,   2433.50488,   2186.45581
    714,   11423.7412,   2433.50488,   2186.45581
    715,   11436.2393,   2433.50488,   2186.45581
    716,   11448.7383,   2433.50488,   2186.45581
    717,   11461.2373,   2433.50488,   2186.45581
    718,   11473.7354,   2433.50488,   2186.45581
    719,   11486.2344,   2433.50488,   2186.45581
    720,   11498.7324,   2433.50488,   2186.45581
    721,   11511.2314,   2433.50488,   2186.45581
    722,   11523.7305,   2433.50488,   2186.45581
    723,   11536.2285,   2433.50488,   2186.45581
    724,   11548.7275,   2433.50488,   2186.45581
    725,   11561.2256,   2433.50488,   2186.45581
    726,   11573.7246,   2433.50488,   2186.45581
    727,   11586.2227,   2433.50488,   2186.45581
    728,   11598.7217,   2433.50488,   2186.45581
    729,   11611.2207,   2433.50488,   2186.45581
    730,   11623.7188,   2433.50488,   2186.45581
    731,   11636.2178,   2433.50488,   2186.45581
    732,   11648.7158,   2433.50488,   2186.45581
    733,   11661.2148,   2433.50488,   2186.45581
    734,   11673.7139,   2433.50488,   2186.45581
    735,   11686.2119,   2433.50488,   2186.45581
    736,   11698.7109,   2433.50488,   2186.45581
    737,    11711.209,   2433.50488,   2186.45581
    738,    11723.708,   2433.50488,   2186.45581
    739,    11736.207,   2433.50488,   2186.45581
    740,   11748.7051,   2433.50488,   2186.45581
    741,   11761.2041,   2433.50488,   2186.45581
    742,   11773.7021,   2433.50488,   2186.45581
    743,   11786.2012,   2433.50488,   2186.45581
    744,   11798.7002,   2433.50488,   2186.45581
    745,   11811.1982,   2433.50488,   2186.45581
    746,   11823.6973,   2433.50488,   2186.45581
    747,   11836.1953,   2433.50488,   2186.45581
    748,   11848.6943,   2433.50488,   2186.45581
    749,   11861.1924,   2433.50488,   2186.45581
    750,   11873.6914,   2433.50488,   2186.45581
    751,   11886.1904,   2433.50488,   2186.45581
    752,   11898.6885,   2433.50488,   2186.45581
    753,   11911.1875,   2433.50488,   2186.45581
    754,   11923.6855,   2433.50488,   2186.45581
    755,   11936.1846,   2433.50488,   2186.45581
    756,   11948.6836,   2433.50488,   2186.45581
    757,   10323.8623,   2433.50488,   2186.45581
    758,   10336.3613,   2433.50488,   2186.45581
    759,   10348.8594,   2433.50488,   2186.45581
    760,   10361.3584,   2433.50488,   2186.45581
    761,   10373.8564,   2433.50488,   2186.45581
    762,   10386.3555,   2433.50488,   2186.45581
    763,   10398.8535,   2433.50488,   2186.45581
    764,   10411.3525,   2433.50488,   2186.45581
    765,   10423.8516,   2433.50488,   2186.45581
    766,   10436.3496,   2433.50488,   2186.45581
    767,   10448.8486,   2433.50488,   2186.45581
    768,   10461.3467,   2433.50488,   2186.45581
    769,   10473.8457,   2433.50488,   2186.45581
    770,   10486.3447,   2433.50488,   2186.45581
    771,   10498.8428,   2433.50488,   2186.45581
    772,   10511.3418,   2433.50488,   2186.45581
    773,   10523.8398,   2433.50488,   2186.45581
    774,   10536.3389,   2433.50488,   2186.45581
    775,   10548.8379,   2433.50488,   2186.45581
    776,   10561.3359,   2433.50488,   2186.45581
    777,    10573.835,   2433.50488,   2186.45581
    778,    10586.333,   2433.50488,   2186.45581
    779,    10598.832,   2433.50488,   2186.45581
    780,   10611.3311,   2433.50488,   2186.45581
    781,   10623.8291,   2433.50488,   2186.45581
    782,   10636.3281,   2433.50488,   2186.45581
    783,   10648.8262,   2433.50488,   2186.45581
    784,   10661.3252,   2433.50488,   2186.45581
    785,   10673.8232,   2433.50488,   2186.45581
    786,   10686.3223,   2433.50488,   2186.45581
    787,   10698.8213,   2433.50488,   2186.45581
    788,   10711.3193,   2433.50488,   2186.45581
    789,   10723.8184,   2433.50488,   2186.45581
    790,   10736.3164,   2433.50488,   2186.45581
    791,   10748.8154,   2433.50488,   2186.45581
    792,   10761.3145,   2433.50488,   2186.45581
    793,   10773.8125,   2433.50488,   2186.45581
    794,   10786.3115,   2433.50488,   2186.45581
    795,   10798.8096,   2433.50488,   2186.45581
    796,   10811.3086,   2433.50488,   2186.45581
    797,   10823.8076,   2433.50488,   2186.45581
    798,   10836.3057,   2433.50488,   2186.45581
    799,   10848.8047,   2433.50488,   2186.45581
    800,   10861.3027,   2433.50488,   2186.45581
    801,   10873.8018,   2433.50488,   2186.45581
    802,   10886.2998,   2433.50488,   2186.45581
    803,   10898.7988,   2433.50488,   2186.45581
    804,   10911.2979,   2433.50488,   2186.45581
    805,   10923.7959,   2433.50488,   2186.45581
    806,   10936.2949,   2433.50488,   2186.45581
    807,    10948.793,   2433.50488,   2186.45581
    808,    10961.292,   2433.50488,   2186.45581
    809,    10973.791,   2433.50488,   2186.45581
    810,   10986.2891,   2433.50488,   2186.45581
    811,   10998.7881,   2433.50488,   2186.45581
    812,   11011.2861,   2433.50488,   2186.45581
    813,   11023.7852,   2433.50488,   2186.45581
    814,   11036.2842,   2433.50488,   2186.45581
    815,   11048.7822,   2433.50488,   2186.45581
    816,   11061.2812,   2433.50488,   2186.45581
    817,   11073.7793,   2433.50488,   2186.45581
    818,   11086.2783,   2433.50488,   2186.45581
    819,   11098.7773,   2433.50488,   2186.45581
    820,   11111.2754,   2433.50488,   2186.45581
    821,   11123.7744,   2433.50488,   2186.45581
    822,   9498.95312,   2433.50488,   2186.45581
    823,   9511.45215,   2433.50488,   2186.45581
    824,    9523.9502,   2433.50488,   2186.45581
    825,   9536.44922,   2433.50488,   2186.45581
    826,   9548.94727,   2433.50488,   2186.45581
    827,   9561.44629,   2433.50488,   2186.45581
    828,   9573.94531,   2433.50488,   2186.45581
    829,   9586.44336,   2433.50488,   2186.45581
    830,   9598.94238,   2433.50488,   2186.45581
    831,   9611.44043,   2433.50488,   2186.45581
    832,   9623.93945,   2433.50488,   2186.45581
    833,   9636.43848,   2433.50488,   2186.45581
    834,   9648.93652,   2433.50488,   2186.45581
    835,   9661.43555,   2433.50488,   2186.45581
    836,   9673.93359,   2433.50488,   2186.45581
    837,   9686.43262,   2433.50488,   2186.45581
    838,   9698.93066,   2433.50488,   2186.45581
    839,   9711.42969,   2433.50488,   2186.45581
    840,   9723.92871,   2433.50488,   2186.45581
    841,   9736.42676,   2433.50488,   2186.45581
    842,   9748.92578,   2433.50488,   2186.45581
    843,   9761.42383,   2433.50488,   2186.45581
    844,   9773.92285,   2433.50488,   2186.45581
    845,   9786.42188,   2433.50488,   2186.45581
    846,   9798.91992,   2433.50488,   2186.45581
    847,   9811.41895,   2433.50488,   2186.45581
    848,   9823.91699,   2433.50488,   2186.45581
    849,   9836.41602,   2433.50488,   2186.45581
    850,   9848.91504,   2433.50488,   2186.45581
    851,   9861.41309,   2433.50488,   2186.45581
    852,   9873.91211,   2433.50488,   2186.45581
    853,   9886.41016,   2433.50488,   2186.45581
    854,   9898.90918,   2433.50488,   2186.45581
    855,   9911.40723,   2433.50488,   2186.45581
    856,   9923.90625,   2433.50488,   2186.45581
    857,   9936.40527,   2433.50488,   2186.45581
    858,   9948.90332,   2433.50488,   2186.45581
    859,   9961.40234,   2433.50488,   2186.45581
    860,   9973.90039,   2433.50488,   2186.45581
    861,   9986.39941,   2433.50488,   2186.45581
    862,   9998.89844,   2433.50488,   2186.45581
    863,   10011.3965,   2433.50488,   2186.45581
    864,   10023.8955,   2433.50488,   2186.45581
    865,   10036.3936,   2433.50488,   2186.45581
    866,   10048.8926,   2433.50488,   2186.45581
    867,   10061.3916,   2433.50488,   2186.45581
    868,   10073.8896,   2433.50488,   2186.45581
    869,   10086.3887,   2433.50488,   2186.45581
    870,   10098.8867,   2433.50488,   2186.45581
    871,   10111.3857,   2433.50488,   2186.45581
    872,   10123.8848,   2433.50488,   2186.45581
    873,   10136.3828,   2433.50488,   2186.45581
    874,   10148.8818,   2433.50488,   2186.45581
    875,   10161.3799,   2433.50488,   2186.45581
    876,   10173.8789,   2433.50488,   2186.45581
    877,    10186.377,   2433.50488,   2186.45581
    878,    10198.876,   2433.50488,   2186.45581
    879,    10211.375,   2433.50488,   2186.45581
    880,    10223.873,   2433.50488,   2186.45581
    881,   10236.3721,   2433.50488,   2186.45581
    882,   10248.8701,   2433.50488,   2186.45581
    883,   10261.3691,   2433.50488,   2186.45581
    884,   10273.8682,   2433.50488,   2186.45581
    885,   10286.3662,   2433.50488,   2186.45581
    886,   10298.8652,   2433.50488,   2186.45581
    887,   9086.49902,   2433.50488,   2186.45581
    888,   9098.99707,   2433.50488,   2186.45581
    889,   9111.49609,   2433.50488,   2186.45581
    890,   9123.99414,   2433.50488,   2186.45581
    891,   9136.49316,   2433.50488,   2186.45581
    892,   9148.99219,   2433.50488,   2186.45581
    893,   9161.49023,   2433.50488,   2186.45581
    894,   9173.98926,   2433.50488,   2186.45581
    895,    9186.4873,   2433.50488,   2186.45581
    896,   9198.98633,   2433.50488,   2186.45581
    897,   9211.48438,   2433.50488,   2186.45581
    898,    9223.9834,   2433.50488,   2186.45581
    899,   9236.48242,   2433.50488,   2186.45581
    900,   9248.98047,   2433.50488,   2186.45581
    901,   9261.47949,   2433.50488,   2186.45581
    902,   9273.97754,   2433.50488,   2186.45581
    903,   9286.47656,   2433.50488,   2186.45581
    904,   9298.97559,   2433.50488,   2186.45581
    905,   9311.47363,   2433.50488,   2186.45581
    906,   9323.97266,   2433.50488,   2186.45581
    907,    9336.4707,   2433.50488,   2186.45581
    908,   9348.96973,   2433.50488,   2186.45581
    909,   9361.46875,   2433.50488,   2186.45581
    910,    9373.9668,   2433.50488,   2186.45581
    911,   9386.46582,   2433.50488,   2186.45581
    912,   9398.96387,   2433.50488,   2186.45581
    913,   9411.46289,   2433.50488,   2186.45581
    914,   9423.96191,   2433.50488,   2186.45581
    915,   9436.45996,   2433.50488,   2186.45581
    916,   9448.95898,   2433.50488,   2186.45581
    917,   9461.45703,   2433.50488,   2186.45581
    918,   9473.95605,   2433.50488,   2186.45581
    919,   8674.04395,   2433.50488,   2186.45581
    920,   8686.54297,   2433.50488,   2186.45581
    921,   8699.04102,   2433.50488,   2186.45581
    922,   8711.54004,   2433.50488,   2186.45581
    923,   8724.03809,   2433.50488,   2186.45581
    924,   8736.53711,   2433.50488,   2186.45581
    925,   8749.03613,   2433.50488,   2186.45581
    926,   8761.53418,   2433.50488,   2186.45581
    927,    8774.0332,   2433.50488,   2186.45581
    928,   8786.53125,   2433.50488,   2186.45581
    929,   8799.03027,   2433.50488,   2186.45581
    930,    8811.5293,   2433.50488,   2186.45581
    931,   8824.02734,   2433.50488,   2186.45581
    932,   8836.52637,   2433.50488,   2186.45581
    933,   8849.02441,   2433.50488,   2186.45581
    934,   8861.52344,   2433.50488,   2186.45581
    935,   8874.02246,   2433.50488,   2186.45581
    936,   8886.52051,   2433.50488,   2186.45581
    937,   8899.01953,   2433.50488,   2186.45581
    938,   8911.51758,   2433.50488,   2186.45581
    939,    8924.0166,   2433.50488,   2186.45581
    940,   8936.51562,   2433.50488,   2186.45581
    941,   8949.01367,   2433.50488,   2186.45581
    942,    8961.5127,   2433.50488,   2186.45581
    943,   8974.01074,   2433.50488,   2186.45581
    944,   8986.50977,   2433.50488,   2186.45581
    945,   8999.00781,   2433.50488,   2186.45581
    946,   9011.50684,   2433.50488,   2186.45581
    947,   9024.00586,   2433.50488,   2186.45581
    948,   9036.50391,   2433.50488,   2186.45581
    949,   9049.00293,   2433.50488,   2186.45581
    950,   9061.50098,   2433.50488,   2186.45581
    951,   7849.13477,   2433.50488,   2186.45581
    952,   7861.63379,   2433.50488,   2186.45581
    953,   7874.13232,   2433.50488,   2186.45581
    954,   7886.63086,   2433.50488,   2186.45581
    955,   7899.12939,   2433.50488,   2186.45581
    956,   7911.62793,   2433.50488,   2186.45581
    957,   7924.12695,   2433.50488,   2186.45581
    958,   7936.62549,   2433.50488,   2186.45581
    959,   7949.12402,   2433.50488,   2186.45581
    960,   7961.62256,   2433.50488,   2186.45581
    961,   7974.12109,   2433.50488,   2186.45581
    962,   7986.61963,   2433.50488,   2186.45581
    963,   7999.11865,   2433.50488,   2186.45581
    964,   8011.61719,   2433.50488,   2186.45581
    965,   8024.11572,   2433.50488,   2186.45581
    966,   8036.61426,   2433.50488,   2186.45581
    967,   8049.11279,   2433.50488,   2186.45581
    968,   8061.61133,   2433.50488,   2186.45581
    969,   8074.11035,   2433.50488,   2186.45581
    970,   8086.60889,   2433.50488,   2186.45581
    971,   8099.10742,   2433.50488,   2186.45581
    972,   8111.60596,   2433.50488,   2186.45581
    973,   8124.10449,   2433.50488,   2186.45581
    974,   8136.60352,   2433.50488,   2186.45581
    975,   8149.10205,   2433.50488,   2186.45581
    976,   8161.60059,   2433.50488,   2186.45581
    977,   8174.09912,   2433.50488,   2186.45581
    978,   8186.59766,   2433.50488,   2186.45581
    979,   8199.09668,   2433.50488,   2186.45581
    980,   8211.59473,   2433.50488,   2186.45581
    981,   8224.09375,   2433.50488,   2186.45581
    982,   8236.59277,   2433.50488,   2186.45581
    983,   8249.09082,   2433.50488,   2186.45581
    984,   8261.58984,   2433.50488,   2186.45581
    985,   8274.08789,   2433.50488,   2186.45581
    986,   8286.58691,   2433.50488,   2186.45581
    987,   8299.08496,   2433.50488,   2186.45581
    988,   8311.58398,   2433.50488,   2186.45581
    989,   8324.08301,   2433.50488,   2186.45581
    990,   8336.58105,   2433.50488,   2186.45581
    991,   8349.08008,   2433.50488,   2186.45581
    992,   8361.57812,   2433.50488,   2186.45581
    993,   8374.07715,   2433.50488,   2186.45581
    994,   8386.57617,   2433.50488,   2186.45581
    995,   8399.07422,   2433.50488,   2186.45581
    996,   8411.57324,   2433.50488,   2186.45581
    997,   8424.07129,   2433.50488,   2186.45581
    998,   8436.57031,   2433.50488,   2186.45581
    999,   8449.06934,   2433.50488,   2186.45581
   1000,   8461.56738,   2433.50488,   2186.45581
   1001,   8474.06641,   2433.50488,   2186.45581
   1002,   8486.56445,   2433.50488,   2186.45581
   1003,   8499.06348,   2433.50488,   2186.45581
   1004,   8511.56152,   2433.50488,   2186.45581
   1005,   8524.06055,   2433.50488,   2186.45581
   1006,   8536.55957,   2433.50488,   2186.45581
   1007,   8549.05762,   2433.50488,   2186.45581
   1008,   8561.55664,   2433.50488,   2186.45581
   1009,   8574.05469,   2433.50488,   2186.45581
   1010,   8586.55371,   2433.50488,   2186.45581
   1011,   8599.05273,   2433.50488,   2186.45581
   1012,   8611.55078,   2433.50488,   2186.45581
   1013,    8624.0498,   2433.50488,   2186.45581
   1014,   8636.54785,   2433.50488,   2186.45581
   1015,   8649.04688,   2433.50488,   2186.45581
   1016,   7024.22607,   2433.50488,   2186.45581
   1017,   7036.72461,   2433.50488,   2186.45581
   1018,   7049.22314,   2433.50488,   2186.45581
   1019,   7061.72168,   2433.50488,   2186.45581
   1020,   7074.22021,   2433.50488,   2186.45581
   1021,   7086.71924,   2433.50488,   2186.45581
   1022,   7099.21777,   2433.50488,   2186.45581
   1023,   7111.71631,   2433.50488,   2186.45581
   1024,   7124.21484,   2433.50488,   2186.45581
   1025,   7136.71338,   2433.50488,   2186.45581
   1026,   7149.21191,   2433.50488,   2186.45581
   1027,   7161.71094,   2433.50488,   2186.45581
   1028,   7174.20947,   2433.50488,   2186.45581
   1029,   7186.70801,   2433.50488,   2186.45581
   1030,   7199.20654,   2433.50488,   2186.45581
   1031,   7211.70508,   2433.50488,   2186.45581
   1032,   7224.20361,   2433.50488,   2186.45581
   1033,   7236.70264,   2433.50488,   2186.45581
   1034,   7249.20117,   2433.50488,   2186.45581
   1035,   7261.69971,   2433.50488,   2186.45581
   1036,   7274.19824,   2433.50488,   2186.45581
   1037,   7286.69678,   2433.50488,   2186.45581
   1038,    7299.1958,   2433.50488,   2186.45581
   1039,   7311.69434,   2433.50488,   2186.45581
   1040,   7324.19287,   2433.50488,   2186.45581
   1041,   7336.69141,   2433.50488,   2186.45581
   1042,   7349.18994,   2433.50488,   2186.45581
   1043,   7361.68848,   2433.50488,   2186.45581
   1044,    7374.1875,   2433.50488,   2186.45581
   1045,   7386.68604,   2433.50488,   2186.45581
   1046,   7399.18457,   2433.50488,   2186.45581
   1047,   7411.68311,   2433.50488,   2186.45581
   1048,   7424.18164,   2433.50488,   2186.45581
   1049,   7436.68066,   2433.50488,   2186.45581
   1050,    7449.1792,   2433.50488,   2186.45581
   1051,   7461.67773,   2433.50488,   2186.45581
   1052,   7474.17627,   2433.50488,   2186.45581
   1053,    7486.6748,   2433.50488,   2186.45581
   1054,   7499.17334,   2433.50488,   2186.45581
   1055,   7511.67236,   2433.50488,   2186.45581
   1056,    7524.1709,   2433.50488,   2186.45581
   1057,   7536.66943,   2433.50488,   2186.45581
   1058,   7549.16797,   2433.50488,   2186.45581
   1059,    7561.6665,   2433.50488,   2186.45581
   1060,   7574.16553,   2433.50488,   2186.45581
   1061,   7586.66406,   2433.50488,   2186.45581
   1062,    7599.1626,   2433.50488,   2186.45581
   1063,   7611.66113,   2433.50488,   2186.45581
   1064,   7624.15967,   2433.50488,   2186.45581
   1065,    7636.6582,   2433.50488,   2186.45581
   1066,   7649.15723,   2433.50488,   2186.45581
   1067,   7661.65576,   2433.50488,   2186.45581
   1068,    7674.1543,   2433.50488,   2186.45581
   1069,   7686.65283,   2433.50488,   2186.45581
   1070,   7699.15137,   2433.50488,   2186.45581
   1071,    7711.6499,   2433.50488,   2186.45581
   1072,   7724.14893,   2433.50488,   2186.45581
   1073,   7736.64746,   2433.50488,   2186.45581
   1074,     7749.146,   2433.50488,   2186.45581
   1075,   7761.64453,   2433.50488,   2186.45581
   1076,   7774.14307,   2433.50488,   2186.45581
   1077,   7786.64209,   2433.50488,   2186.45581
   1078,   7799.14062,   2433.50488,   2186.45581
   1079,   7811.63916,   2433.50488,   2186.45581
   1080,    7824.1377,   2433.50488,   2186.45581
   1081,   6199.31689,   2433.50488,   2186.45581
   1082,   6211.81543,   2433.50488,   2186.45581
   1083,   6224.31396,   2433.50488,   2186.45581
   1084,    6236.8125,   2433.50488,   2186.45581
   1085,   6249.31152,   2433.50488,   2186.45581
   1086,   6261.81006,   2433.50488,   2186.45581
   1087,   6274.30859,   2433.50488,   2186.45581
   1088,   6286.80713,   2433.50488,   2186.45581
   1089,   6299.30566,   2433.50488,   2186.45581
   1090,    6311.8042,   2433.50488,   2186.45581
   1091,   6324.30322,   2433.50488,   2186.45581
   1092,   6336.80176,   2433.50488,   2186.45581
   1093,   6349.30029,   2433.50488,   2186.45581
   1094,   6361.79883,   2433.50488,   2186.45581
   1095,   6374.29736,   2433.50488,   2186.45581
   1096,   6386.79639,   2433.50488,   2186.45581
   1097,   6399.29492,   2433.50488,   2186.45581
   1098,   6411.79346,   2433.50488,   2186.45581
   1099,   6424.29199,   2433.50488,   2186.45581
   1100,   6436.79053,   2433.50488,   2186.45581
   1101,   6449.28906,   2433.50488,   2186.45581
   1102,   6461.78809,   2433.50488,   2186.45581
   1103,   6474.28662,   2433.50488,   2186.45581
   1104,   6486.78516,   2433.50488,   2186.45581
   1105,   6499.28369,   2433.50488,   2186.45581
   1106,   6511.78223,   2433.50488,   2186.45581
   1107,   6524.28076,   2433.50488,   2186.45581
   1108,   6536.77979,   2433.50488,   2186.45581
   1109,   6549.27832,   2433.50488,   2186.45581
   1110,   6561.77686,   2433.50488,   2186.45581
   1111,   6574.27539,   2433.50488,   2186.45581
   1112,   6586.77393,   2433.50488,   2186.45581
   1113,   6599.27295,   2433.50488,   2186.45581
   1114,   6611.77148,   2433.50488,   2186.45581
   1115,   6624.27002,   2433.50488,   2186.45581
   1116,   6636.76855,   2433.50488,   2186.45581
   1117,   6649.26709,   2433.50488,   2186.45581
   1118,   6661.76562,   2433.50488,   2186.45581
   1119,   6674.26465,   2433.50488,   2186.45581
   1120,   6686.76318,   2433.50488,   2186.45581
   1121,   6699.26172,   2433.50488,   2186.45581
   1122,   6711.76025,   2433.50488,   2186.45581
   1123,   6724.25879,   2433.50488,   2186.45581
   1124,   6736.75781,   2433.50488,   2186.45581
   1125,   6749.25635,   2433.50488,   2186.45581
   1126,   6761.75488,   2433.50488,   2186.45581
   1127,   6774.25342,   2433.50488,   2186.45581
   1128,   6786.75195,   2433.50488,   2186.45581
   1129,   6799.25049,   2433.50488,   2186.45581
   1130,   6811.74951,   2433.50488,   2186.45581
   1131,   6824.24805,   2433.50488,   2186.45581
   1132,   6836.74658,   2433.50488,   2186.45581
   1133,   6849.24512,   2433.50488,   2186.45581
   1134,   6861.74365,   2433.50488,   2186.45581
   1135,   6874.24219,   2433.50488,   2186.45581
   1136,   6886.74121,   2433.50488,   2186.45581
   1137,   6899.23975,   2433.50488,   2186.45581
   1138,   6911.73828,   2433.50488,   2186.45581
   1139,   6924.23682,   2433.50488,   2186.45581
   1140,   6936.73535,   2433.50488,   2186.45581
   1141,   6949.23438,   2433.50488,   2186.45581
   1142,   6961.73291,   2433.50488,   2186.45581
   1143,   6974.23145,   2433.50488,   2186.45581
   1144,   6986.72998,   2433.50488,   2186.45581
   1145,   6999.22852,   2433.50488,   2186.45581
   1146,   5374.40771,   2433.50488,   2186.45581
   1147,   5386.90625,   2433.50488,   2186.45581
   1148,   5399.40479,   2433.50488,   2186.45581
   1149,   5411.90381,   2433.50488,   2186.45581
   1150,   5424.40234,   2433.50488,   2186.45581
   1151,   5436.90088,   2433.50488,   2186.45581
   1152,   5449.39941,   2433.50488,   2186.45581
   1153,   5461.89795,   2433.50488,   2186.45581
   1154,   5474.39648,   2433.50488,   2186.45581
   1155,   5486.89551,   2433.50488,   2186.45581
   1156,   5499.39404,   2433.50488,   2186.45581
   1157,   5511.89258,   2433.50488,   2186.45581
   1158,   5524.39111,   2433.50488,   2186.45581
   1159,   5536.88965,   2433.50488,   2186.45581
   1160,   5549.38867,   2433.50488,   2186.45581
   1161,   5561.88721,   2433.50488,   2186.45581
   1162,   5574.38574,   2433.50488,   2186.45581
   1163,   5586.88428,   2433.50488,   2186.45581
   1164,   5599.38281,   2433.50488,   2186.45581
   1165,   5611.88135,   2433.50488,   2186.45581
   1166,   5624.38037,   2433.50488,   2186.45581
   1167,   5636.87891,   2433.50488,   2186.45581
   1168,   5649.37744,   2433.50488,   2186.45581
   1169,   5661.87598,   2433.50488,   2186.45581
   1170,   5674.37451,   2433.50488,   2186.45581
   1171,   5686.87305,   2433.50488,   2186.45581
   1172,   5699.37207,   2433.50488,   2186.45581
   1173,   5711.87061,   2433.50488,   2186.45581
   1174,   5724.36914,   2433.50488,   2186.45581
   1175,   5736.86768,   2433.50488,   2186.45581
   1176,   5749.36621,   2433.50488,   2186.45581
   1177,   5761.86523,   2433.50488,   2186.45581
   1178,   5774.36377,   2433.50488,   2186.45581
   1179,    5786.8623,   2433.50488,   2186.45581
   1180,   5799.36084,   2433.50488,   2186.45581
   1181,   5811.85938,   2433.50488,   2186.45581
   1182,   5824.35791,   2433.50488,   2186.45581
   1183,   5836.85693,   2433.50488,   2186.45581
   1184,   5849.35547,   2433.50488,   2186.45581
   1185,     5861.854,   2433.50488,   2186.45581
   1186,   5874.35254,   2433.50488,   2186.45581
   1187,   5886.85107,   2433.50488,   2186.45581
   1188,    5899.3501,   2433.50488,   2186.45581
   1189,   5911.84863,   2433.50488,   2186.45581
   1190,   5924.34717,   2433.50488,   2186.45581
   1191,    5936.8457,   2433.50488,   2186.45581
   1192,   5949.34424,   2433.50488,   2186.45581
   1193,   5961.84277,   2433.50488,   2186.45581
   1194,    5974.3418,   2433.50488,   2186.45581
   1195,   5986.84033,   2433.50488,   2186.45581
   1196,   5999.33887,   2433.50488,   2186.45581
   1197,    6011.8374,   2433.50488,   2186.45581
   1198,   6024.33594,   2433.50488,   2186.45581
   1199,   6036.83447,   2433.50488,   2186.45581
   1200,    6049.3335,   2433.50488,   2186.45581
   1201,   6061.83203,   2433.50488,   2186.45581
   1202,   6074.33057,   2433.50488,   2186.45581
   1203,    6086.8291,   2433.50488,   2186.45581
   1204,   6099.32764,   2433.50488,   2186.45581
   1205,   6111.82666,   2433.50488,   2186.45581
   1206,    6124.3252,   2433.50488,   2186.45581
   1207,   6136.82373,   2433.50488,   2186.45581
   1208,   6149.32227,   2433.50488,   2186.45581
   1209,    6161.8208,   2433.50488,   2186.45581
   1210,   6174.31934,   2433.50488,   2186.45581
   1211,   4549.49854,   2433.50488,   2186.45581
   1212,   4561.99707,   2433.50488,   2186.45581
   1213,   4574.49609,   2433.50488,   2186.45581
   1214,   4586.99463,   2433.50488,   2186.45581
   1215,   4599.49316,   2433.50488,   2186.45581
   1216,    4611.9917,   2433.50488,   2186.45581
   1217,   4624.49023,   2433.50488,   2186.45581
   1218,   4636.98877,   2433.50488,   2186.45581
   1219,   4649.48779,   2433.50488,   2186.45581
   1220,   4661.98633,   2433.50488,   2186.45581
   1221,   4674.48486,   2433.50488,   2186.45581
   1222,    4686.9834,   2433.50488,   2186.45581
   1223,   4699.48193,   2433.50488,   2186.45581
   1224,   4711.98096,   2433.50488,   2186.45581
   1225,   4724.47949,   2433.50488,   2186.45581
   1226,   4736.97803,   2433.50488,   2186.45581
   1227,   4749.47656,   2433.50488,   2186.45581
   1228,    4761.9751,   2433.50488,   2186.45581
   1229,   4774.47363,   2433.50488,   2186.45581
   1230,   4786.97266,   2433.50488,   2186.45581
   1231,   4799.47119,   2433.50488,   2186.45581
   1232,   4811.96973,   2433.50488,   2186.45581
   1233,   4824.46826,   2433.50488,   2186.45581
   1234,    4836.9668,   2433.50488,   2186.45581
   1235,   4849.46533,   2433.50488,   2186.45581
   1236,   4861.96436,   2433.50488,   2186.45581
   1237,   4874.46289,   2433.50488,   2186.45581
   1238,   4886.96143,   2433.50488,   2186.45581
   1239,   4899.45996,   2433.50488,   2186.45581
   1240,    4911.9585,   2433.50488,   2186.45581
   1241,   4924.45752,   2433.50488,   2186.45581
   1242,   4936.95605,   2433.50488,   2186.45581
   1243,   4949.45459,   2433.50488,   2186.45581
   1244,   4961.95312,   2433.50488,   2186.45581
   1245,   4974.45166,   2433.50488,   2186.45581
   1246,    4986.9502,   2433.50488,   2186.45581
   1247,   4999.44922,   2433.50488,   2186.45581
   1248,   5011.94775,   2433.50488,   2186.45581
   1249,   5024.44629,   2433.50488,   2186.45581
   1250,   5036.94482,   2433.50488,   2186.45581
   1251,   5049.44336,   2433.50488,   2186.45581
   1252,   5061.94238,   2433.50488,   2186.45581
   1253,   5074.44092,   2433.50488,   2186.45581
   1254,   5086.93945,   2433.50488,   2186.45581
   1255,   5099.43799,   2433.50488,   2186.45581
   1256,   5111.93652,   2433.50488,   2186.45581
   1257,   5124.43506,   2433.50488,   2186.45581
   1258,   5136.93408,   2433.50488,   2186.45581
   1259,   5149.43262,   2433.50488,   2186.45581
   1260,   5161.93115,   2433.50488,   2186.45581
   1261,   5174.42969,   2433.50488,   2186.45581
   1262,   5186.92822,   2433.50488,   2186.45581
   1263,   5199.42676,   2433.50488,   2186.45581
   1264,   5211.92578,   2433.50488,   2186.45581
   1265,   5224.42432,   2433.50488,   2186.45581
   1266,   5236.92285,   2433.50488,   2186.45581
   1267,   5249.42139,   2433.50488,   2186.45581
   1268,   5261.91992,   2433.50488,   2186.45581
   1269,   5274.41895,   2433.50488,   2186.45581
   1270,   5286.91748,   2433.50488,   2186.45581
   1271,   5299.41602,   2433.50488,   2186.45581
   1272,   5311.91455,   2433.50488,   2186.45581
   1273,   5324.41309,   2433.50488,   2186.45581
   1274,   5336.91162,   2433.50488,   2186.45581
   1275,   5349.41064,   2433.50488,   2186.45581
   1276,    3724.5896,   2433.50488,   2186.45581
   1277,   3737.08813,   2433.50488,   2186.45581
   1278,   3749.58667,   2433.50488,   2186.45581
   1279,   3762.08545,   2433.50488,   2186.45581
   1280,   3774.58398,   2433.50488,   2186.45581
   1281,   3787.08276,   2433.50488,   2186.45581
   1282,    3799.5813,   2433.50488,   2186.45581
   1283,   3812.07983,   2433.50488,   2186.45581
   1284,   3824.57861,   2433.50488,   2186.45581
   1285,   3837.07715,   2433.50488,   2186.45581
   1286,   3849.57568,   2433.50488,   2186.45581
   1287,   3862.07446,   2433.50488,   2186.45581
   1288,     3874.573,   2433.50488,   2186.45581
   1289,   3887.07153,   2433.50488,   2186.45581
   1290,   3899.57031,   2433.50488,   2186.45581
   1291,   3912.06885,   2433.50488,   2186.45581
   1292,   3924.56738,   2433.50488,   2186.45581
   1293,   3937.06616,   2433.50488,   2186.45581
   1294,    3949.5647,   2433.50488,   2186.45581
   1295,   3962.06348,   2433.50488,   2186.45581
   1296,   3974.56201,   2433.50488,   2186.45581
   1297,   3987.06055,   2433.50488,   2186.45581
   1298,   3999.55933,   2433.50488,   2186.45581
   1299,   4012.05786,   2433.50488,   2186.45581
   1300,    4024.5564,   2433.50488,   2186.45581
   1301,   4037.05518,   2433.50488,   2186.45581
   1302,   4049.55371,   2433.50488,   2186.45581
   1303,   4062.05225,   2433.50488,   2186.45581
   1304,   4074.55103,   2433.50488,   2186.45581
   1305,   4087.04956,   2433.50488,   2186.45581
   1306,   4099.54834,   2433.50488,   2186.45581
   1307,   4112.04688,   2433.50488,   2186.45581
   1308,   4124.54541,   2433.50488,   2186.45581
   1309,   4137.04395,   2433.50488,   2186.45581
   1310,   4149.54248,   2433.50488,   2186.45581
   1311,    4162.0415,   2433.50488,   2186.45581
   1312,   4174.54004,   2433.50488,   2186.45581
   1313,   4187.03857,   2433.50488,   2186.45581
   1314,   4199.53711,   2433.50488,   2186.45581
   1315,   4212.03564,   2433.50488,   2186.45581
   1316,   4224.53467,   2433.50488,   2186.45581
   1317,    4237.0332,   2433.50488,   2186.45581
   1318,   4249.53174,   2433.50488,   2186.45581
   1319,   4262.03027,   2433.50488,   2186.45581
   1320,   4274.52881,   2433.50488,   2186.45581
   1321,   4287.02734,   2433.50488,   2186.45581
   1322,   4299.52637,   2433.50488,   2186.45581
   1323,    4312.0249,   2433.50488,   2186.45581
   1324,   4324.52344,   2433.50488,   2186.45581
   1325,   4337.02197,   2433.50488,   2186.45581
   1326,   4349.52051,   2433.50488,   2186.45581
   1327,   4362.01904,   2433.50488,   2186.45581
   1328,   4374.51807,   2433.50488,   2186.45581
   1329,    4387.0166,   2433.50488,   2186.45581
   1330,   4399.51514,   2433.50488,   2186.45581
   1331,   4412.01367,   2433.50488,   2186.45581
   1332,   4424.51221,   2433.50488,   2186.45581
   1333,   4437.01123,   2433.50488,   2186.45581
   1334,   4449.50977,   2433.50488,   2186.45581
   1335,    4462.0083,   2433.50488,   2186.45581
   1336,   4474.50684,   2433.50488,   2186.45581
   1337,   4487.00537,   2433.50488,   2186.45581
   1338,   4499.50391,   2433.50488,   2186.45581
   1339,   4512.00293,   2433.50488,   2186.45581
   1340,   4524.50146,   2433.50488,   2186.45581
   1341,   2899.68042,   2433.50488,   2186.45581
   1342,   2912.17896,   2433.50488,   2186.45581
   1343,   2924.67773,   2433.50488,   2186.45581
   1344,   2937.17627,   2433.50488,   2186.45581
   1345,   2949.67505,   2433.50488,   2186.45581
   1346,   2962.17358,   2433.50488,   2186.45581
   1347,   2974.67212,   2433.50488,   2186.45581
   1348,    2987.1709,   2433.50488,   2186.45581
   1349,   2999.66943,   2433.50488,   2186.45581
   1350,   3012.16797,   2433.50488,   2186.45581
   1351,   3024.66675,   2433.50488,   2186.45581
   1352,   3037.16528,   2433.50488,   2186.45581
   1353,   3049.66382,   2433.50488,   2186.45581
   1354,    3062.1626,   2433.50488,   2186.45581
   1355,   3074.66113,   2433.50488,   2186.45581
   1356,   3087.15967,   2433.50488,   2186.45581
   1357,   3099.65845,   2433.50488,   2186.45581
   1358,   3112.15698,   2433.50488,   2186.45581
   1359,   3124.65576,   2433.50488,   2186.45581
   1360,    3137.1543,   2433.50488,   2186.45581
   1361,   3149.65283,   2433.50488,   2186.45581
   1362,   3162.15161,   2433.50488,   2186.45581
   1363,   3174.65015,   2433.50488,   2186.45581
   1364,   3187.14868,   2433.50488,   2186.45581
   1365,   3199.64746,   2433.50488,   2186.45581
   1366,     3212.146,   2433.50488,   2186.45581
   1367,   3224.64453,   2433.50488,   2186.45581
   1368,   3237.14331,   2433.50488,   2186.45581
   1369,   3249.64185,   2433.50488,   2186.45581
   1370,   3262.14038,   2433.50488,   2186.45581
   1371,   3274.63916,   2433.50488,   2186.45581
   1372,    3287.1377,   2433.50488,   2186.45581
   1373,   3299.63647,   2433.50488,   2186.45581
   1374,   3312.13501,   2433.50488,   2186.45581
   1375,   3324.63354,   2433.50488,   2186.45581
   1376,   3337.13232,   2433.50488,   2186.45581
   1377,   3349.63086,   2433.50488,   2186.45581
   1378,   3362.12939,   2433.50488,   2186.45581
   1379,   3374.62817,   2433.50488,   2186.45581
   1380,   3387.12671,   2433.50488,   2186.45581
   1381,   3399.62524,   2433.50488,   2186.45581
   1382,   3412.12402,   2433.50488,   2186.45581
   1383,   3424.62256,   2433.50488,   2186.45581
   1384,   3437.12109,   2433.50488,   2186.45581
   1385,   3449.61987,   2433.50488,   2186.45581
   1386,   3462.11841,   2433.50488,   2186.45581
   1387,   3474.61719,   2433.50488,   2186.45581
   1388,   3487.11572,   2433.50488,   2186.45581
   1389,   3499.61426,   2433.50488,   2186.45581
   1390,   3512.11304,   2433.50488,   2186.45581
   1391,   3524.61157,   2433.50488,   2186.45581
   1392,   3537.11011,   2433.50488,   2186.45581
   1393,   3549.60889,   2433.50488,   2186.45581
   1394,   3562.10742,   2433.50488,   2186.45581
   1395,   3574.60596,   2433.50488,   2186.45581
   1396,   3587.10474,   2433.50488,   2186.45581
   1397,   3599.60327,   2433.50488,   2186.45581
   1398,   3612.10181,   2433.50488,   2186.45581
   1399,   3624.60059,   2433.50488,   2186.45581
   1400,   3637.09912,   2433.50488,   2186.45581
   1401,    3649.5979,   2433.50488,   2186.45581
   1402,   3662.09644,   2433.50488,   2186.45581
   1403,   3674.59497,   2433.50488,   2186.45581
   1404,   3687.09375,   2433.50488,   2186.45581
   1405,   3699.59229,   2433.50488,   2186.45581
   1406,   2074.77124,   2433.50488,   2186.45581
   1407,   2087.27002,   2433.50488,   2186.45581
   1408,   2099.76855,   2433.50488,   2186.45581
   1409,   2112.26733,   2433.50488,   2186.45581
   1410,   2124.76587,   2433.50488,   2186.45581
   1411,    2137.2644,   2433.50488,   2186.45581
   1412,   2149.76318,   2433.50488,   2186.45581
   1413,   2162.26172,   2433.50488,   2186.45581
   1414,   2174.76025,   2433.50488,   2186.45581
   1415,   2187.25903,   2433.50488,   2186.45581
   1416,   2199.75757,   2433.50488,   2186.45581
   1417,    2212.2561,   2433.50488,   2186.45581
   1418,   2224.75488,   2433.50488,   2186.45581
   1419,   2237.25342,   2433.50488,   2186.45581
   1420,   2249.75195,   2433.50488,   2186.45581
   1421,   2262.25073,   2433.50488,   2186.45581
   1422,   2274.74927,   2433.50488,   2186.45581
   1423,   2287.24805,   2433.50488,   2186.45581
   1424,   2299.74658,   2433.50488,   2186.45581
   1425,   2312.24512,   2433.50488,   2186.45581
   1426,    2324.7439,   2433.50488,   2186.45581
   1427,   2337.24243,   2433.50488,   2186.45581
   1428,   2349.74097,   2433.50488,   2186.45581
   1429,   2362.23975,   2433.50488,   2186.45581
   1430,   2374.73828,   2433.50488,   2186.45581
   1431,   2387.23682,   2433.50488,   2186.45581
   1432,    2399.7356,   2433.50488,   2186.45581
   1433,   2412.23413,   2433.50488,   2186.45581
   1434,   2424.73267,   2433.50488,   2186.45581
   1435,   2437.23145,   2433.50488,   2186.45581
   1436,   2449.72998,   2433.50488,   2186.45581
   1437,   2462.22876,   2433.50488,   2186.45581
   1438,   2474.72729,   2433.50488,   2186.45581
   1439,   2487.22583,   2433.50488,   2186.45581
   1440,   2499.72461,   2433.50488,   2186.45581
   1441,   2512.22314,   2433.50488,   2186.45581
   1442,   2524.72168,   2433.50488,   2186.45581
   1443,   2537.22046,   2433.50488,   2186.45581
   1444,   2549.71899,   2433.50488,   2186.45581
   1445,   2562.21753,   2433.50488,   2186.45581
   1446,   2574.71631,   2433.50488,   2186.45581
   1447,   2587.21484,   2433.50488,   2186.45581
   1448,   2599.71338,   2433.50488,   2186.45581
   1449,   2612.21216,   2433.50488,   2186.45581
   1450,   2624.71069,   2433.50488,   2186.45581
   1451,   2637.20947,   2433.50488,   2186.45581
   1452,   2649.70801,   2433.50488,   2186.45581
   1453,   2662.20654,   2433.50488,   2186.45581
   1454,   2674.70532,   2433.50488,   2186.45581
   1455,   2687.20386,   2433.50488,   2186.45581
   1456,   2699.70239,   2433.50488,   2186.45581
   1457,   2712.20117,   2433.50488,   2186.45581
   1458,   2724.69971,   2433.50488,   2186.45581
   1459,   2737.19824,   2433.50488,   2186.45581
   1460,   2749.69702,   2433.50488,   2186.45581
   1461,   2762.19556,   2433.50488,   2186.45581
   1462,   2774.69434,   2433.50488,   2186.45581
   1463,   2787.19287,   2433.50488,   2186.45581
   1464,   2799.69141,   2433.50488,   2186.45581
   1465,   2812.19019,   2433.50488,   2186.45581
   1466,   2824.68872,   2433.50488,   2186.45581
   1467,   2837.18726,   2433.50488,   2186.45581
   1468,   2849.68604,   2433.50488,   2186.45581
   1469,   2862.18457,   2433.50488,   2186.45581
   1470,   2874.68311,   2433.50488,   2186.45581
   1471,    1249.8623,   2433.50488,   2186.45581
   1472,   1262.36084,   2433.50488,   2186.45581
   1473,    1274.8595,   2433.50488,   2186.45581
   1474,   1287.35815,   2433.50488,   2186.45581
   1475,   1299.85669,   2433.50488,   2186.45581
   1476,   1312.35535,   2433.50488,   2186.45581
   1477,     1324.854,   2433.50488,   2186.45581
   1478,   1337.35266,   2433.50488,   2186.45581
   1479,    1349.8512,   2433.50488,   2186.45581
   1480,   1362.34985,   2433.50488,   2186.45581
   1481,   1374.84851,   2433.50488,   2186.45581
   1482,   1387.34717,   2433.50488,   2186.45581
   1483,    1399.8457,   2433.50488,   2186.45581
   1484,   1412.34436,   2433.50488,   2186.45581
   1485,   1424.84302,   2433.50488,   2186.45581
   1486,   1437.34155,   2433.50488,   2186.45581
   1487,   1449.84021,   2433.50488,   2186.45581
   1488,   1462.33887,   2433.50488,   2186.45581
   1489,   1474.83752,   2433.50488,   2186.45581
   1490,   1487.33606,   2433.50488,   2186.45581
   1491,   1499.83472,   2433.50488,   2186.45581
   1492,   1512.33337,   2433.50488,   2186.45581
   1493,   1524.83191,   2433.50488,   2186.45581
   1494,   1537.33057,   2433.50488,   2186.45581
   1495,   1549.82922,   2433.50488,   2186.45581
   1496,   1562.32788,   2433.50488,   2186.45581
   1497,   1574.82642,   2433.50488,   2186.45581
   1498,   1587.32507,   2433.50488,   2186.45581
   1499,   1599.82373,   2433.50488,   2186.45581
   1500,   1612.32227,   2433.50488,   2186.45581
   1501,   1624.82092,   2433.50488,   2186.45581
   1502,   1637.31958,   2433.50488,   2186.45581
   1503,   1649.81824,   2433.50488,   2186.45581
   1504,   1662.31677,   2433.50488,   2186.45581
   1505,   1674.81543,   2433.50488,   2186.45581
   1506,   1687.31409,   2433.50488,   2186.45581
   1507,   1699.81262,   2433.50488,   2186.45581
   1508,   1712.31128,   2433.50488,   2186.45581
   1509,   1724.80994,   2433.50488,   2186.45581
   1510,   1737.30859,   2433.50488,   2186.45581
   1511,   1749.80713,   2433.50488,   2186.45581
   1512,   1762.30579,   2433.50488,   2186.45581
   1513,   1774.80444,   2433.50488,   2186.45581
   1514,   1787.30298,   2433.50488,   2186.45581
   1515,   1799.80164,   2433.50488,   2186.45581
   1516,   1812.30029,   2433.50488,   2186.45581
   1517,   1824.79895,   2433.50488,   2186.45581
   1518,   1837.29749,   2433.50488,   2186.45581
   1519,   1849.79614,   2433.50488,   2186.45581
   1520,    1862.2948,   2433.50488,   2186.45581
   1521,   1874.79333,   2433.50488,   2186.45581
   1522,   1887.29199,   2433.50488,   2186.45581
   1523,   1899.79065,   2433.50488,   2186.45581
   1524,   1912.28931,   2433.50488,   2186.45581
   1525,   1924.78784,   2433.50488,   2186.45581
   1526,    1937.2865,   2433.50488,   2186.45581
   1527,   1949.78516,   2433.50488,   2186.45581
   1528,   1962.28369,   2433.50488,   2186.45581
   1529,   1974.78235,   2433.50488,   2186.45581
   1530,   1987.28101,   2433.50488,   2186.45581
   1531,   1999.77966,   2433.50488,   2186.45581
   1532,    2012.2782,   2433.50488,   2186.45581
   1533,   2024.77686,   2433.50488,   2186.45581
   1534,   2037.27551,   2433.50488,   2186.45581
   1535,   2049.77417,   2433.50488,   2186.45581
   1536,   424.953156,   2433.50488,   2186.45581
   1537,   437.451782,   2433.50488,   2186.45581
   1538,   449.950409,   2433.50488,   2186.45581
   1539,   462.449036,   2433.50488,   2186.45581
   1540,   474.947662,   2433.50488,   2186.45581
   1541,   487.446289,   2433.50488,   2186.45581
   1542,   499.944916,   2433.50488,   2186.45581
   1543,   512.443542,   2433.50488,   2186.45581
   1544,   524.942139,   2433.50488,   2186.45581
   1545,   537.440796,   2433.50488,   2186.45581
   1546,   549.939392,   2433.50488,   2186.45581
   1547,   562.437988,   2433.50488,   2186.45581
   1548,   574.936646,   2433.50488,   2186.45581
   1549,   587.435242,   2433.50488,   2186.45581
   1550,   599.933899,   2433.50488,   2186.45581
   1551,   612.432495,   2433.50488,   2186.45581
   1552,   624.931152,   2433.50488,   2186.45581
   1553,   637.429749,   2433.50488,   2186.45581
   1554,   649.928345,   2433.50488,   2186.45581
   1555,   662.427002,   2433.50488,   2186.45581
   1556,   674.925598,   2433.50488,   2186.45581
   1557,   687.424255,   2433.50488,   2186.45581
   1558,   699.922852,   2433.50488,   2186.45581
   1559,   712.421509,   2433.50488,   2186.45581
   1560,   724.920105,   2433.50488,   2186.45581
   1561,   737.418762,   2433.50488,   2186.45581
   1562,   749.917358,   2433.50488,   2186.45581
   1563,   762.415955,   2433.50488,   2186.45581
   1564,   774.914612,   2433.50488,   2186.45581
   1565,   787.413208,   2433.50488,   2186.45581
   1566,   799.911865,   2433.50488,   2186.45581
   1567,   812.410461,   2433.50488,   2186.45581
   1568,   824.909119,   2433.50488,   2186.45581
   1569,   837.407715,   2433.50488,   2186.45581
   1570,   849.906311,   2433.50488,   2186.45581
   1571,   862.404968,   2433.50488,   2186.45581
   1572,   874.903564,   2433.50488,   2186.45581
   1573,   887.402222,   2433.50488,   2186.45581
   1574,   899.900818,   2433.50488,   2186.45581
   1575,   912.399475,   2433.50488,   2186.45581
   1576,   924.898071,   2433.50488,   2186.45581
   1577,   937.396667,   2433.50488,   2186.45581
   1578,   949.895325,   2433.50488,   2186.45581
   1579,   962.393921,   2433.50488,   2186.45581
   1580,   974.892578,   2433.50488,   2186.45581
   1581,   987.391174,   2433.50488,   2186.45581
   1582,   999.889832,   2433.50488,   2186.45581
   1583,   1012.38843,   2433.50488,   2186.45581
   1584,   1024.88708,   2433.50488,   2186.45581
   1585,   1037.38562,   2433.50488,   2186.45581
   1586,   1049.88428,   2433.50488,   2186.45581
   1587,   1062.38293,   2433.50488,   2186.45581
   1588,   1074.88159,   2433.50488,   2186.45581
   1589,   1087.38013,   2433.50488,   2186.45581
   1590,   1099.87878,   2433.50488,   2186.45581
   1591,   1112.37744,   2433.50488,   2186.45581
   1592,   1124.87598,   2433.50488,   2186.45581
   1593,   1137.37463,   2433.50488,   2186.45581
   1594,   1149.87329,   2433.50488,   2186.45581
   1595,   1162.37195,   2433.50488,   2186.45581
   1596,   1174.87048,   2433.50488,   2186.45581
   1597,   1187.36914,   2433.50488,   2186.45581
   1598,    1199.8678,   2433.50488,   2186.45581
   1599,   1212.36633,   2433.50488,   2186.45581
   1600,   1224.86499,   2433.50488,   2186.45581
   1601,   12.4986229,   2433.50488,   2186.45581
   1602,   24.9972458,   2433.50488,   2186.45581
   1603,   37.4958687,   2433.50488,   2186.45581
   1604,   49.9944916,   2433.50488,   2186.45581
   1605,   62.4931145,   2433.50488,   2186.45581
   1606,   74.9917374,   2433.50488,   2186.45581
   1607,   87.4903564,   2433.50488,   2186.45581
   1608,   99.9889832,   2433.50488,   2186.45581
   1609,   112.487602,   2433.50488,   2186.45581
   1610,   124.986229,   2433.50488,   2186.45581
   1611,   137.484848,   2433.50488,   2186.45581
   1612,   149.983475,   2433.50488,   2186.45581
   1613,   162.482086,   2433.50488,   2186.45581
   1614,   174.980713,   2433.50488,   2186.45581
   1615,    187.47934,   2433.50488,   2186.45581
   1616,   199.977966,   2433.50488,   2186.45581
   1617,   212.476578,   2433.50488,   2186.45581
   1618,   224.975204,   2433.50488,   2186.45581
   1619,   237.473831,   2433.50488,   2186.45581
   1620,   249.972458,   2433.50488,   2186.45581
   1621,   262.471069,   2433.50488,   2186.45581
   1622,   274.969696,   2433.50488,   2186.45581
   1623,   287.468323,   2433.50488,   2186.45581
   1624,   299.966949,   2433.50488,   2186.45581
   1625,   312.465576,   2433.50488,   2186.45581
   1626,   324.964172,   2433.50488,   2186.45581
   1627,   337.462799,   2433.50488,   2186.45581
   1628,   349.961426,   2433.50488,   2186.45581
   1629,   362.460052,   2433.50488,   2186.45581
   1630,   374.958679,   2433.50488,   2186.45581
   1631,   387.457306,   2433.50488,   2186.45581
   1632,   399.955933,   2433.50488,   2186.45581
   1633,           0.,   2444.89087,   2191.76392
   1634,           0.,   2456.27686,   2197.07178
   1635,           0.,   2467.66284,   2202.37988
   1636,           0.,   2479.04907,   2207.68774
   1637,           0.,   2490.43506,   2212.99561
   1638,           0.,   2501.82104,   2218.30371
   1639,           0.,   2513.20703,   2223.61157
   1640,           0.,   2524.59302,   2228.91968
   1641,           0.,   2535.97925,   2234.22754
   1642,           0.,   2547.36523,   2239.53564
   1643,           0.,   2558.75122,   2244.84351
   1644,           0.,   2570.13721,   2250.15137
   1645,           0.,   2581.52319,   2255.45947
   1646,           0.,   2592.90942,   2260.76733
   1647,           0.,   2604.29541,   2266.07544
   1648,           0.,    2615.6814,    2271.3833
   1649,           0.,   2627.06738,   2276.69141
   1650,           0.,   2638.45361,   2281.99927
   1651,           0.,    2649.8396,   2287.30713
   1652,           0.,   2661.22559,   2292.61523
   1653,           0.,   2672.61157,    2297.9231
   1654,           0.,   2683.99756,    2303.2312
   1655,           0.,   2695.38379,   2308.53906
   1656,           0.,   2706.76978,   2313.84717
   1657,           0.,   2718.15576,   2319.15503
   1658,           0.,   2729.54175,   2324.46289
   1659,           0.,   2740.92798,     2329.771
   1660,           0.,   2752.31396,   2335.07886
   1661,           0.,   2763.69995,   2340.38696
   1662,           0.,   2775.08594,   2345.69482
   1663,           0.,   2786.47192,   2351.00293
   1664,           0.,   2797.85815,   2356.31079
   1665,           0.,   2809.24414,   2361.61865
   1666,           0.,   2820.63013,   2366.92676
   1667,           0.,   2832.01611,   2372.23462
   1668,           0.,   2843.40234,   2377.54272
   1669,           0.,   2854.78833,   2382.85059
   1670,           0.,   2866.17432,   2388.15869
   1671,           0.,    2877.5603,   2393.46655
   1672,       18148.,   1533.95007,   1767.09973
   1673,       18148.,   1545.27856,   1772.38086
   1674,       18148.,   1556.60706,   1777.66199
   1675,       18148.,   1567.93555,   1782.94312
   1676,       18148.,   1579.26404,   1788.22437
   1677,       18148.,   1590.59253,   1793.50549
   1678,       18148.,   1601.92102,   1798.78662
   1679,       18148.,   1613.24951,   1804.06775
   1680,       18148.,     1624.578,   1809.34888
   1681,       18148.,   1635.90649,      1814.63
   1682,       18148.,   1647.23499,   1819.91113
   1683,       18148.,   1658.56348,   1825.19226
   1684,       18148.,   1669.89197,   1830.47339
   1685,       18148.,   1681.22046,   1835.75452
   1686,       18148.,   1692.54895,   1841.03564
   1687,       18148.,   1703.87744,   1846.31677
   1688,       18148.,   1715.20593,    1851.5979
   1689,       18148.,   1726.53442,   1856.87903
   1690,       18148.,   1737.86292,   1862.16028
   1691,       18148.,   1749.19141,   1867.44141
   1692,       18148.,    1760.5199,   1872.72253
   1693,       18148.,   1771.84839,   1878.00366
   1694,       18148.,   1783.17688,   1883.28479
   1695,       18148.,   1794.50537,   1888.56592
   1696,       18148.,   1805.83386,   1893.84705
   1697,       18148.,   1817.16235,   1899.12817
   1698,       18148.,   1828.49084,    1904.4093
   1699,       18148.,   1839.81934,   1909.69043
   1700,       18148.,   1851.14783,   1914.97156
   1701,       18148.,   1862.47632,   1920.25269
   1702,       18148.,   1873.80481,   1925.53381
   1703,       18148.,    1885.1333,   1930.81494
   1704,       18148.,   1896.46179,   1936.09619
   1705,       18148.,   1907.79016,   1941.37732
   1706,       18148.,   1919.11865,   1946.65845
   1707,       18148.,   1930.44714,   1951.93958
   1708,       18148.,   1941.77563,    1957.2207
   1709,       18148.,   1953.10413,   1962.50183
   1710,       18148.,   1964.43262,   1967.78296
   1711,       18148.,   1975.76111,   1973.06409
   1712,       18148.,    1987.0896,   1978.34521
   1713,       18148.,   1998.41809,   1983.62634
   1714,       18148.,   2009.74658,   1988.90747
   1715,       18148.,   2021.07507,    1994.1886
   1716,       18148.,   2032.40356,   1999.46973
   1717,       18148.,   2043.73206,   2004.75085
   1718,       18148.,   2055.06055,    2010.0321
   1719,       18148.,   2066.38916,   2015.31323
   1720,       18148.,   2077.71753,   2020.59436
   1721,       18148.,   2089.04614,   2025.87549
   1722,       18148.,   2100.37451,   2031.15662
   1723,       18148.,   2111.70312,   2036.43774
   1724,       18148.,   2123.03149,   2041.71887
   1725,       18148.,   623.124451,   1342.48938
   1726,       18148.,   634.510498,   1347.79724
   1727,       18148.,   645.896545,   1353.10522
   1728,       18148.,   657.282532,   1358.41321
   1729,       18148.,   668.668579,   1363.72119
   1730,       18148.,   680.054626,   1369.02917
   1731,       18148.,   691.440674,   1374.33716
   1732,       18148.,   702.826721,   1379.64514
   1733,       18148.,   714.212769,     1384.953
   1734,       18148.,   725.598816,   1390.26099
   1735,       18148.,   736.984863,   1395.56897
   1736,       18148.,   748.370911,   1400.87695
   1737,       18148.,   759.756897,   1406.18494
   1738,       18148.,   771.142944,   1411.49292
   1739,       18148.,   782.528992,    1416.8009
   1740,       18148.,   793.915039,   1422.10876
   1741,       18148.,   805.301086,   1427.41675
   1742,       18148.,   816.687134,   1432.72473
   1743,       18148.,   828.073181,   1438.03271
   1744,       18148.,   839.459229,    1443.3407
   1745,       18148.,   850.845215,   1448.64868
   1746,       18148.,   862.231262,   1453.95667
   1747,       18148.,    873.61731,   1459.26453
   1748,       18148.,   885.003357,   1464.57251
   1749,       18148.,   896.389404,   1469.88049
   1750,       18148.,   907.775452,   1475.18848
   1751,       18148.,   919.161499,   1480.49646
   1752,       18148.,   930.547546,   1485.80444
   1753,       18148.,   941.933533,   1491.11243
   1754,       18148.,    953.31958,   1496.42029
   1755,       18148.,   964.705627,   1501.72827
   1756,       18148.,   976.091675,   1507.03625
   1757,       18148.,   987.477722,   1512.34424
   1758,       18148.,    998.86377,   1517.65222
   1759,       18148.,   1010.24982,   1522.96021
   1760,       18148.,   1021.63586,   1528.26819
   1761,       18148.,   1033.02185,   1533.57605
   1762,       18148.,   1044.40796,   1538.88403
   1763,       18148.,   1055.79395,   1544.19202
   1764,       18148.,   1067.18005,       1549.5
   1765,       18148.,   1078.56604,   1554.80798
   1766,       18148.,   1089.95203,   1560.11597
   1767,       18148.,   1101.33813,   1565.42395
   1768,       18148.,   1112.72412,   1570.73181
   1769,       18148.,   1124.11023,   1576.03979
   1770,       18148.,   1135.49622,   1581.34778
   1771,       18148.,   1146.88232,   1586.65576
   1772,       18148.,   1158.26831,   1591.96375
   1773,       18148.,   1169.65442,   1597.27173
   1774,       18148.,   1181.04041,   1602.57971
   1775,       18148.,   1192.42639,   1607.88757
   1776,       18148.,    1203.8125,   1613.19556
   1777,       18148.,   1215.19849,   1618.50354
   1778,       18148.,   1226.58459,   1623.81152
   1779,       18148.,   1237.97058,   1629.11951
   1780,       18148.,   1249.35669,   1634.42749
   1781,       18148.,   1260.74268,   1639.73547
   1782,       18148.,   1272.12866,   1645.04333
   1783,       18148.,   1283.51477,   1650.35132
   1784,       18148.,   1294.90076,    1655.6593
   1785,       18148.,   1306.28687,   1660.96729
   1786,       18148.,   1317.67285,   1666.27527
   1787,       18148.,   1329.05896,   1671.58325
   1788,       18148.,   1340.44495,   1676.89124
   1789,       18148.,   1351.83105,    1682.1991
   1790,       18148.,   1363.21704,   1687.50708
   1791,       18148.,   1374.60303,   1692.81506
   1792,       18148.,   1385.98914,   1698.12305
   1793,       18148.,   1397.37512,   1703.43103
   1794,       18148.,   1408.76123,   1708.73901
   1795,       18148.,   1420.14722,     1714.047
   1796,       18148.,   1431.53333,   1719.35486
   1797,       18148.,   1442.91931,   1724.66284
   1798,       18148.,    1454.3053,   1729.97083
   1799,       18148.,   1465.69141,   1735.27881
   1800,       18148.,   1477.07739,   1740.58679
   1801,       18148.,    1488.4635,   1745.89478
   1802,       18148.,   1499.84949,   1751.20276
   1803,       18148.,    1511.2356,   1756.51062
   1804,       18148.,   11.3284893,   1057.28113
   1805,       18148.,   22.6569786,   1062.56226
   1806,       18148.,    33.985466,   1067.84338
   1807,       18148.,   45.3139572,   1073.12451
   1808,       18148.,   56.6424446,   1078.40564
   1809,       18148.,    67.970932,   1083.68677
   1810,       18148.,   79.2994232,    1088.9679
   1811,       18148.,   90.6279144,   1094.24915
   1812,       18148.,   101.956398,   1099.53027
   1813,       18148.,   113.284889,    1104.8114
   1814,       18148.,    124.61338,   1110.09253
   1815,       18148.,   135.941864,   1115.37366
   1816,       18148.,   147.270355,   1120.65479
   1817,       18148.,   158.598846,   1125.93591
   1818,       18148.,   169.927338,   1131.21704
   1819,       18148.,   181.255829,   1136.49817
   1820,       18148.,   192.584305,    1141.7793
   1821,       18148.,   203.912796,   1147.06042
   1822,       18148.,   215.241287,   1152.34155
   1823,       18148.,   226.569778,   1157.62268
   1824,       18148.,    237.89827,   1162.90381
   1825,       18148.,   249.226761,   1168.18506
   1826,       18148.,   260.555237,   1173.46619
   1827,       18148.,   271.883728,   1178.74731
   1828,       18148.,   283.212219,   1184.02844
   1829,       18148.,    294.54071,   1189.30957
   1830,       18148.,   305.869202,    1194.5907
   1831,       18148.,   317.197693,   1199.87183
   1832,       18148.,   328.526184,   1205.15295
   1833,       18148.,   339.854675,   1210.43408
   1834,       18148.,   351.183167,   1215.71521
   1835,       18148.,   362.511658,   1220.99634
   1836,       18148.,   373.840149,   1226.27747
   1837,       18148.,    385.16861,   1231.55859
   1838,       18148.,   396.497101,   1236.83972
   1839,       18148.,   407.825592,   1242.12097
   1840,       18148.,   419.154083,    1247.4021
   1841,       18148.,   430.482574,   1252.68323
   1842,       18148.,   441.811066,   1257.96436
   1843,       18148.,   453.139557,   1263.24548
   1844,       18148.,   464.468048,   1268.52661
   1845,       18148.,   475.796539,   1273.80774
   1846,       18148.,   487.125031,   1279.08887
   1847,       18148.,   498.453522,      1284.37
   1848,       18148.,   509.782013,   1289.65112
   1849,       18148.,   521.110474,   1294.93225
   1850,       18148.,   532.438965,   1300.21338
   1851,       18148.,   543.767456,   1305.49451
   1852,       18148.,   555.095947,   1310.77563
   1853,       18148.,   566.424438,   1316.05688
   1854,       18148.,    577.75293,   1321.33801
   1855,       18148.,   589.081421,   1326.61914
   1856,       18148.,   600.409912,   1331.90027
   1857,       18148.,  -287.639221,   917.907776
   1858,       18148.,  -276.133667,   923.271484
   1859,       18148.,  -264.628082,   928.635193
   1860,       18148.,  -253.122513,    933.99884
   1861,       18148.,  -241.616943,   939.362549
   1862,       18148.,  -230.111374,   944.726257
   1863,       18148.,  -218.605804,   950.089905
   1864,       18148.,   -207.10025,   955.453613
   1865,       18148.,  -195.594681,   960.817322
   1866,       18148.,  -184.089111,   966.180969
   1867,       18148.,  -172.583542,   971.544678
   1868,       18148.,  -161.077972,   976.908386
   1869,       18148.,  -149.572403,   982.272034
   1870,       18148.,  -138.066833,   987.635742
   1871,       18148.,  -126.561256,   992.999451
   1872,       18148.,  -115.055687,   998.363098
   1873,       18148.,  -103.550125,   1003.72681
   1874,       18148.,  -92.0445557,   1009.09052
   1875,       18148.,  -80.5389862,   1014.45416
   1876,       18148.,  -69.0334167,   1019.81787
   1877,       18148.,  -57.5278435,   1025.18152
   1878,       18148.,  -46.0222778,   1030.54529
   1879,       18148.,  -34.5167084,   1035.90894
   1880,       18148.,  -23.0111389,   1041.27258
   1881,       18148.,  -11.5055695,   1046.63635
   1882,       18148.,  -743.200378,   705.533447
   1883,       18148.,  -731.814331,   710.841431
   1884,       18148.,  -720.428284,   716.149353
   1885,       18148.,  -709.042236,   721.457336
   1886,       18148.,  -697.656189,    726.76532
   1887,       18148.,  -686.270142,   732.073303
   1888,       18148.,  -674.884094,   737.381226
   1889,       18148.,  -663.498047,   742.689209
   1890,       18148.,  -652.112061,   747.997192
   1891,       18148.,  -640.726013,   753.305115
   1892,       18148.,  -629.339966,   758.613098
   1893,       18148.,  -617.953918,   763.921082
   1894,       18148.,  -606.567871,   769.229065
   1895,       18148.,  -595.181824,   774.536987
   1896,       18148.,  -583.795776,   779.844971
   1897,       18148.,  -572.409729,   785.152954
   1898,       18148.,  -561.023743,   790.460876
   1899,       18148.,  -549.637695,    795.76886
   1900,       18148.,  -538.251648,   801.076843
   1901,       18148.,  -526.865601,   806.384827
   1902,       18148.,  -515.479553,   811.692749
   1903,       18148.,  -504.093506,   817.000732
   1904,       18148.,  -492.707489,   822.308716
   1905,       18148.,  -481.321442,   827.616638
   1906,       18148.,  -469.935394,   832.924622
   1907,       18148.,  -458.549347,   838.232605
   1908,       18148.,    -447.1633,   843.540527
   1909,       18148.,  -435.777283,   848.848511
   1910,       18148.,  -424.391235,   854.156494
   1911,       18148.,  -413.005188,   859.464478
   1912,       18148.,  -401.619141,     864.7724
   1913,       18148.,  -390.233124,   870.080383
   1914,       18148.,  -378.847076,   875.388367
   1915,       18148.,  -367.461029,   880.696289
   1916,       18148.,  -356.074982,   886.004272
   1917,       18148.,  -344.688965,   891.312256
   1918,       18148.,  -333.302917,   896.620239
   1919,       18148.,   -321.91687,   901.928162
   1920,       18148.,  -310.530823,   907.236145
   1921,       13611.,   2444.89087,   2191.76392
   1922,       13611.,   2456.27686,   2197.07178
   1923,       13611.,   2467.66284,   2202.37988
   1924,       13611.,   2479.04907,   2207.68774
   1925,       13611.,   2490.43506,   2212.99561
   1926,       13611.,   2501.82104,   2218.30371
   1927,       13611.,   2513.20703,   2223.61157
   1928,       13611.,   2524.59302,   2228.91968
   1929,       13611.,   2535.97925,   2234.22754
   1930,       13611.,   2547.36523,   2239.53564
   1931,       13611.,   2558.75122,   2244.84351
   1932,       13611.,   2570.13721,   2250.15137
   1933,       13611.,   2581.52319,   2255.45947
   1934,       13611.,   2592.90942,   2260.76733
   1935,       13611.,   2604.29541,   2266.07544
   1936,       13611.,    2615.6814,    2271.3833
   1937,       13611.,   2627.06738,   2276.69141
   1938,       13611.,   2638.45361,   2281.99927
   1939,       13611.,    2649.8396,   2287.30713
   1940,       13611.,   2661.22559,   2292.61523
   1941,       13611.,   2672.61157,    2297.9231
   1942,       13611.,   2683.99756,    2303.2312
   1943,       13611.,   2695.38379,   2308.53906
   1944,       13611.,   2706.76978,   2313.84717
   1945,       13611.,   2718.15576,   2319.15503
   1946,       13611.,   2729.54175,   2324.46289
   1947,       13611.,   2740.92798,     2329.771
   1948,       13611.,   2752.31396,   2335.07886
   1949,       13611.,   2763.69995,   2340.38696
   1950,       13611.,   2775.08594,   2345.69482
   1951,       13611.,   2786.47192,   2351.00293
   1952,       13611.,   2797.85815,   2356.31079
   1953,       13611.,   2809.24414,   2361.61865
   1954,       13611.,   2820.63013,   2366.92676
   1955,       13611.,   2832.01611,   2372.23462
   1956,       13611.,   2843.40234,   2377.54272
   1957,       13611.,   2854.78833,   2382.85059
   1958,       13611.,   2866.17432,   2388.15869
   1959,       13611.,    2877.5603,   2393.46655
   1960,       13611.,   2145.86548,   2052.36377
   1961,       13611.,   2157.37109,   2057.72729
   1962,       13611.,   2168.87671,   2063.09106
   1963,       13611.,   2180.38232,   2068.45483
   1964,       13611.,   2191.88794,   2073.81836
   1965,       13611.,   2203.39331,   2079.18213
   1966,       13611.,   2214.89893,    2084.5459
   1967,       13611.,   2226.40454,   2089.90942
   1968,       13611.,   2237.91016,   2095.27319
   1969,       13611.,   2249.41577,   2100.63696
   1970,       13611.,   2260.92114,   2106.00049
   1971,       13611.,   2272.42676,   2111.36426
   1972,       13611.,   2283.93237,   2116.72803
   1973,       13611.,   2295.43799,   2122.09155
   1974,       13611.,    2306.9436,   2127.45532
   1975,       13611.,   2318.44922,   2132.81909
   1976,       13611.,   2329.95459,   2138.18262
   1977,       13611.,   2341.46021,   2143.54639
   1978,       13611.,   2352.96582,   2148.91016
   1979,       13611.,   2364.47144,   2154.27368
   1980,       13611.,   2375.97705,   2159.63745
   1981,       13611.,   2387.48242,   2165.00122
   1982,       13611.,   2398.98804,   2170.36475
   1983,       13611.,   2410.49365,   2175.72852
   1984,       13611.,   2421.99927,   2181.09229
   1985,       13611.,   1533.95007,   1767.09973
   1986,       13611.,   1545.27856,   1772.38086
   1987,       13611.,   1556.60706,   1777.66199
   1988,       13611.,   1567.93555,   1782.94312
   1989,       13611.,   1579.26404,   1788.22437
   1990,       13611.,   1590.59253,   1793.50549
   1991,       13611.,   1601.92102,   1798.78662
   1992,       13611.,   1613.24951,   1804.06775
   1993,       13611.,     1624.578,   1809.34888
   1994,       13611.,   1635.90649,      1814.63
   1995,       13611.,   1647.23499,   1819.91113
   1996,       13611.,   1658.56348,   1825.19226
   1997,       13611.,   1669.89197,   1830.47339
   1998,       13611.,   1681.22046,   1835.75452
   1999,       13611.,   1692.54895,   1841.03564
   2000,       13611.,   1703.87744,   1846.31677
   2001,       13611.,   1715.20593,    1851.5979
   2002,       13611.,   1726.53442,   1856.87903
   2003,       13611.,   1737.86292,   1862.16028
   2004,       13611.,   1749.19141,   1867.44141
   2005,       13611.,    1760.5199,   1872.72253
   2006,       13611.,   1771.84839,   1878.00366
   2007,       13611.,   1783.17688,   1883.28479
   2008,       13611.,   1794.50537,   1888.56592
   2009,       13611.,   1805.83386,   1893.84705
   2010,       13611.,   1817.16235,   1899.12817
   2011,       13611.,   1828.49084,    1904.4093
   2012,       13611.,   1839.81934,   1909.69043
   2013,       13611.,   1851.14783,   1914.97156
   2014,       13611.,   1862.47632,   1920.25269
   2015,       13611.,   1873.80481,   1925.53381
   2016,       13611.,    1885.1333,   1930.81494
   2017,       13611.,   1896.46179,   1936.09619
   2018,       13611.,   1907.79016,   1941.37732
   2019,       13611.,   1919.11865,   1946.65845
   2020,       13611.,   1930.44714,   1951.93958
   2021,       13611.,   1941.77563,    1957.2207
   2022,       13611.,   1953.10413,   1962.50183
   2023,       13611.,   1964.43262,   1967.78296
   2024,       13611.,   1975.76111,   1973.06409
   2025,       13611.,    1987.0896,   1978.34521
   2026,       13611.,   1998.41809,   1983.62634
   2027,       13611.,   2009.74658,   1988.90747
   2028,       13611.,   2021.07507,    1994.1886
   2029,       13611.,   2032.40356,   1999.46973
   2030,       13611.,   2043.73206,   2004.75085
   2031,       13611.,   2055.06055,    2010.0321
   2032,       13611.,   2066.38916,   2015.31323
   2033,       13611.,   2077.71753,   2020.59436
   2034,       13611.,   2089.04614,   2025.87549
   2035,       13611.,   2100.37451,   2031.15662
   2036,       13611.,   2111.70312,   2036.43774
   2037,       13611.,   2123.03149,   2041.71887
   2038,       13611.,   623.124451,   1342.48938
   2039,       13611.,   634.510498,   1347.79724
   2040,       13611.,   645.896545,   1353.10522
   2041,       13611.,   657.282532,   1358.41321
   2042,       13611.,   668.668579,   1363.72119
   2043,       13611.,   680.054626,   1369.02917
   2044,       13611.,   691.440674,   1374.33716
   2045,       13611.,   702.826721,   1379.64514
   2046,       13611.,   714.212769,     1384.953
   2047,       13611.,   725.598816,   1390.26099
   2048,       13611.,   736.984863,   1395.56897
   2049,       13611.,   748.370911,   1400.87695
   2050,       13611.,   759.756897,   1406.18494
   2051,       13611.,   771.142944,   1411.49292
   2052,       13611.,   782.528992,    1416.8009
   2053,       13611.,   793.915039,   1422.10876
   2054,       13611.,   805.301086,   1427.41675
   2055,       13611.,   816.687134,   1432.72473
   2056,       13611.,   828.073181,   1438.03271
   2057,       13611.,   839.459229,    1443.3407
   2058,       13611.,   850.845215,   1448.64868
   2059,       13611.,   862.231262,   1453.95667
   2060,       13611.,    873.61731,   1459.26453
   2061,       13611.,   885.003357,   1464.57251
   2062,       13611.,   896.389404,   1469.88049
   2063,       13611.,   907.775452,   1475.18848
   2064,       13611.,   919.161499,   1480.49646
   2065,       13611.,   930.547546,   1485.80444
   2066,       13611.,   941.933533,   1491.11243
   2067,       13611.,    953.31958,   1496.42029
   2068,       13611.,   964.705627,   1501.72827
   2069,       13611.,   976.091675,   1507.03625
   2070,       13611.,   987.477722,   1512.34424
   2071,       13611.,    998.86377,   1517.65222
   2072,       13611.,   1010.24982,   1522.96021
   2073,       13611.,   1021.63586,   1528.26819
   2074,       13611.,   1033.02185,   1533.57605
   2075,       13611.,   1044.40796,   1538.88403
   2076,       13611.,   1055.79395,   1544.19202
   2077,       13611.,   1067.18005,       1549.5
   2078,       13611.,   1078.56604,   1554.80798
   2079,       13611.,   1089.95203,   1560.11597
   2080,       13611.,   1101.33813,   1565.42395
   2081,       13611.,   1112.72412,   1570.73181
   2082,       13611.,   1124.11023,   1576.03979
   2083,       13611.,   1135.49622,   1581.34778
   2084,       13611.,   1146.88232,   1586.65576
   2085,       13611.,   1158.26831,   1591.96375
   2086,       13611.,   1169.65442,   1597.27173
   2087,       13611.,   1181.04041,   1602.57971
   2088,       13611.,   1192.42639,   1607.88757
   2089,       13611.,    1203.8125,   1613.19556
   2090,       13611.,   1215.19849,   1618.50354
   2091,       13611.,   1226.58459,   1623.81152
   2092,       13611.,   1237.97058,   1629.11951
   2093,       13611.,   1249.35669,   1634.42749
   2094,       13611.,   1260.74268,   1639.73547
   2095,       13611.,   1272.12866,   1645.04333
   2096,       13611.,   1283.51477,   1650.35132
   2097,       13611.,   1294.90076,    1655.6593
   2098,       13611.,   1306.28687,   1660.96729
   2099,       13611.,   1317.67285,   1666.27527
   2100,       13611.,   1329.05896,   1671.58325
   2101,       13611.,   1340.44495,   1676.89124
   2102,       13611.,   1351.83105,    1682.1991
   2103,       13611.,   1363.21704,   1687.50708
   2104,       13611.,   1374.60303,   1692.81506
   2105,       13611.,   1385.98914,   1698.12305
   2106,       13611.,   1397.37512,   1703.43103
   2107,       13611.,   1408.76123,   1708.73901
   2108,       13611.,   1420.14722,     1714.047
   2109,       13611.,   1431.53333,   1719.35486
   2110,       13611.,   1442.91931,   1724.66284
   2111,       13611.,    1454.3053,   1729.97083
   2112,       13611.,   1465.69141,   1735.27881
   2113,       13611.,   1477.07739,   1740.58679
   2114,       13611.,    1488.4635,   1745.89478
   2115,       13611.,   1499.84949,   1751.20276
   2116,       13611.,    1511.2356,   1756.51062
   2117,       13611.,   11.3284893,   1057.28113
   2118,       13611.,   22.6569786,   1062.56226
   2119,       13611.,    33.985466,   1067.84338
   2120,       13611.,   45.3139572,   1073.12451
   2121,       13611.,   56.6424446,   1078.40564
   2122,       13611.,    67.970932,   1083.68677
   2123,       13611.,   79.2994232,    1088.9679
   2124,       13611.,   90.6279144,   1094.24915
   2125,       13611.,   101.956398,   1099.53027
   2126,       13611.,   113.284889,    1104.8114
   2127,       13611.,    124.61338,   1110.09253
   2128,       13611.,   135.941864,   1115.37366
   2129,       13611.,   147.270355,   1120.65479
   2130,       13611.,   158.598846,   1125.93591
   2131,       13611.,   169.927338,   1131.21704
   2132,       13611.,   181.255829,   1136.49817
   2133,       13611.,   192.584305,    1141.7793
   2134,       13611.,   203.912796,   1147.06042
   2135,       13611.,   215.241287,   1152.34155
   2136,       13611.,   226.569778,   1157.62268
   2137,       13611.,    237.89827,   1162.90381
   2138,       13611.,   249.226761,   1168.18506
   2139,       13611.,   260.555237,   1173.46619
   2140,       13611.,   271.883728,   1178.74731
   2141,       13611.,   283.212219,   1184.02844
   2142,       13611.,    294.54071,   1189.30957
   2143,       13611.,   305.869202,    1194.5907
   2144,       13611.,   317.197693,   1199.87183
   2145,       13611.,   328.526184,   1205.15295
   2146,       13611.,   339.854675,   1210.43408
   2147,       13611.,   351.183167,   1215.71521
   2148,       13611.,   362.511658,   1220.99634
   2149,       13611.,   373.840149,   1226.27747
   2150,       13611.,    385.16861,   1231.55859
   2151,       13611.,   396.497101,   1236.83972
   2152,       13611.,   407.825592,   1242.12097
   2153,       13611.,   419.154083,    1247.4021
   2154,       13611.,   430.482574,   1252.68323
   2155,       13611.,   441.811066,   1257.96436
   2156,       13611.,   453.139557,   1263.24548
   2157,       13611.,   464.468048,   1268.52661
   2158,       13611.,   475.796539,   1273.80774
   2159,       13611.,   487.125031,   1279.08887
   2160,       13611.,   498.453522,      1284.37
   2161,       13611.,   509.782013,   1289.65112
   2162,       13611.,   521.110474,   1294.93225
   2163,       13611.,   532.438965,   1300.21338
   2164,       13611.,   543.767456,   1305.49451
   2165,       13611.,   555.095947,   1310.77563
   2166,       13611.,   566.424438,   1316.05688
   2167,       13611.,    577.75293,   1321.33801
   2168,       13611.,   589.081421,   1326.61914
   2169,       13611.,   600.409912,   1331.90027
   2170,       13611.,  -287.639221,   917.907776
   2171,       13611.,  -276.133667,   923.271484
   2172,       13611.,  -264.628082,   928.635193
   2173,       13611.,  -253.122513,    933.99884
   2174,       13611.,  -241.616943,   939.362549
   2175,       13611.,  -230.111374,   944.726257
   2176,       13611.,  -218.605804,   950.089905
   2177,       13611.,   -207.10025,   955.453613
   2178,       13611.,  -195.594681,   960.817322
   2179,       13611.,  -184.089111,   966.180969
   2180,       13611.,  -172.583542,   971.544678
   2181,       13611.,  -161.077972,   976.908386
   2182,       13611.,  -149.572403,   982.272034
   2183,       13611.,  -138.066833,   987.635742
   2184,       13611.,  -126.561256,   992.999451
   2185,       13611.,  -115.055687,   998.363098
   2186,       13611.,  -103.550125,   1003.72681
   2187,       13611.,  -92.0445557,   1009.09052
   2188,       13611.,  -80.5389862,   1014.45416
   2189,       13611.,  -69.0334167,   1019.81787
   2190,       13611.,  -57.5278435,   1025.18152
   2191,       13611.,  -46.0222778,   1030.54529
   2192,       13611.,  -34.5167084,   1035.90894
   2193,       13611.,  -23.0111389,   1041.27258
   2194,       13611.,  -11.5055695,   1046.63635
   2195,       13611.,  -743.200378,   705.533447
   2196,       13611.,  -731.814331,   710.841431
   2197,       13611.,  -720.428284,   716.149353
   2198,       13611.,  -709.042236,   721.457336
   2199,       13611.,  -697.656189,    726.76532
   2200,       13611.,  -686.270142,   732.073303
   2201,       13611.,  -674.884094,   737.381226
   2202,       13611.,  -663.498047,   742.689209
   2203,       13611.,  -652.112061,   747.997192
   2204,       13611.,  -640.726013,   753.305115
   2205,       13611.,  -629.339966,   758.613098
   2206,       13611.,  -617.953918,   763.921082
   2207,       13611.,  -606.567871,   769.229065
   2208,       13611.,  -595.181824,   774.536987
   2209,       13611.,  -583.795776,   779.844971
   2210,       13611.,  -572.409729,   785.152954
   2211,       13611.,  -561.023743,   790.460876
   2212,       13611.,  -549.637695,    795.76886
   2213,       13611.,  -538.251648,   801.076843
   2214,       13611.,  -526.865601,   806.384827
   2215,       13611.,  -515.479553,   811.692749
   2216,       13611.,  -504.093506,   817.000732
   2217,       13611.,  -492.707489,   822.308716
   2218,       13611.,  -481.321442,   827.616638
   2219,       13611.,  -469.935394,   832.924622
   2220,       13611.,  -458.549347,   838.232605
   2221,       13611.,    -447.1633,   843.540527
   2222,       13611.,  -435.777283,   848.848511
   2223,       13611.,  -424.391235,   854.156494
   2224,       13611.,  -413.005188,   859.464478
   2225,       13611.,  -401.619141,     864.7724
   2226,       13611.,  -390.233124,   870.080383
   2227,       13611.,  -378.847076,   875.388367
   2228,       13611.,  -367.461029,   880.696289
   2229,       13611.,  -356.074982,   886.004272
   2230,       13611.,  -344.688965,   891.312256
   2231,       13611.,  -333.302917,   896.620239
   2232,       13611.,   -321.91687,   901.928162
   2233,       13611.,  -310.530823,   907.236145
   2234,        9074.,   2444.89087,   2191.76392
   2235,        9074.,   2456.27686,   2197.07178
   2236,        9074.,   2467.66284,   2202.37988
   2237,        9074.,   2479.04907,   2207.68774
   2238,        9074.,   2490.43506,   2212.99561
   2239,        9074.,   2501.82104,   2218.30371
   2240,        9074.,   2513.20703,   2223.61157
   2241,        9074.,   2524.59302,   2228.91968
   2242,        9074.,   2535.97925,   2234.22754
   2243,        9074.,   2547.36523,   2239.53564
   2244,        9074.,   2558.75122,   2244.84351
   2245,        9074.,   2570.13721,   2250.15137
   2246,        9074.,   2581.52319,   2255.45947
   2247,        9074.,   2592.90942,   2260.76733
   2248,        9074.,   2604.29541,   2266.07544
   2249,        9074.,    2615.6814,    2271.3833
   2250,        9074.,   2627.06738,   2276.69141
   2251,        9074.,   2638.45361,   2281.99927
   2252,        9074.,    2649.8396,   2287.30713
   2253,        9074.,   2661.22559,   2292.61523
   2254,        9074.,   2672.61157,    2297.9231
   2255,        9074.,   2683.99756,    2303.2312
   2256,        9074.,   2695.38379,   2308.53906
   2257,        9074.,   2706.76978,   2313.84717
   2258,        9074.,   2718.15576,   2319.15503
   2259,        9074.,   2729.54175,   2324.46289
   2260,        9074.,   2740.92798,     2329.771
   2261,        9074.,   2752.31396,   2335.07886
   2262,        9074.,   2763.69995,   2340.38696
   2263,        9074.,   2775.08594,   2345.69482
   2264,        9074.,   2786.47192,   2351.00293
   2265,        9074.,   2797.85815,   2356.31079
   2266,        9074.,   2809.24414,   2361.61865
   2267,        9074.,   2820.63013,   2366.92676
   2268,        9074.,   2832.01611,   2372.23462
   2269,        9074.,   2843.40234,   2377.54272
   2270,        9074.,   2854.78833,   2382.85059
   2271,        9074.,   2866.17432,   2388.15869
   2272,        9074.,    2877.5603,   2393.46655
   2273,        9074.,   2145.86548,   2052.36377
   2274,        9074.,   2157.37109,   2057.72729
   2275,        9074.,   2168.87671,   2063.09106
   2276,        9074.,   2180.38232,   2068.45483
   2277,        9074.,   2191.88794,   2073.81836
   2278,        9074.,   2203.39331,   2079.18213
   2279,        9074.,   2214.89893,    2084.5459
   2280,        9074.,   2226.40454,   2089.90942
   2281,        9074.,   2237.91016,   2095.27319
   2282,        9074.,   2249.41577,   2100.63696
   2283,        9074.,   2260.92114,   2106.00049
   2284,        9074.,   2272.42676,   2111.36426
   2285,        9074.,   2283.93237,   2116.72803
   2286,        9074.,   2295.43799,   2122.09155
   2287,        9074.,    2306.9436,   2127.45532
   2288,        9074.,   2318.44922,   2132.81909
   2289,        9074.,   2329.95459,   2138.18262
   2290,        9074.,   2341.46021,   2143.54639
   2291,        9074.,   2352.96582,   2148.91016
   2292,        9074.,   2364.47144,   2154.27368
   2293,        9074.,   2375.97705,   2159.63745
   2294,        9074.,   2387.48242,   2165.00122
   2295,        9074.,   2398.98804,   2170.36475
   2296,        9074.,   2410.49365,   2175.72852
   2297,        9074.,   2421.99927,   2181.09229
   2298,        9074.,   1533.95007,   1767.09973
   2299,        9074.,   1545.27856,   1772.38086
   2300,        9074.,   1556.60706,   1777.66199
   2301,        9074.,   1567.93555,   1782.94312
   2302,        9074.,   1579.26404,   1788.22437
   2303,        9074.,   1590.59253,   1793.50549
   2304,        9074.,   1601.92102,   1798.78662
   2305,        9074.,   1613.24951,   1804.06775
   2306,        9074.,     1624.578,   1809.34888
   2307,        9074.,   1635.90649,      1814.63
   2308,        9074.,   1647.23499,   1819.91113
   2309,        9074.,   1658.56348,   1825.19226
   2310,        9074.,   1669.89197,   1830.47339
   2311,        9074.,   1681.22046,   1835.75452
   2312,        9074.,   1692.54895,   1841.03564
   2313,        9074.,   1703.87744,   1846.31677
   2314,        9074.,   1715.20593,    1851.5979
   2315,        9074.,   1726.53442,   1856.87903
   2316,        9074.,   1737.86292,   1862.16028
   2317,        9074.,   1749.19141,   1867.44141
   2318,        9074.,    1760.5199,   1872.72253
   2319,        9074.,   1771.84839,   1878.00366
   2320,        9074.,   1783.17688,   1883.28479
   2321,        9074.,   1794.50537,   1888.56592
   2322,        9074.,   1805.83386,   1893.84705
   2323,        9074.,   1817.16235,   1899.12817
   2324,        9074.,   1828.49084,    1904.4093
   2325,        9074.,   1839.81934,   1909.69043
   2326,        9074.,   1851.14783,   1914.97156
   2327,        9074.,   1862.47632,   1920.25269
   2328,        9074.,   1873.80481,   1925.53381
   2329,        9074.,    1885.1333,   1930.81494
   2330,        9074.,   1896.46179,   1936.09619
   2331,        9074.,   1907.79016,   1941.37732
   2332,        9074.,   1919.11865,   1946.65845
   2333,        9074.,   1930.44714,   1951.93958
   2334,        9074.,   1941.77563,    1957.2207
   2335,        9074.,   1953.10413,   1962.50183
   2336,        9074.,   1964.43262,   1967.78296
   2337,        9074.,   1975.76111,   1973.06409
   2338,        9074.,    1987.0896,   1978.34521
   2339,        9074.,   1998.41809,   1983.62634
   2340,        9074.,   2009.74658,   1988.90747
   2341,        9074.,   2021.07507,    1994.1886
   2342,        9074.,   2032.40356,   1999.46973
   2343,        9074.,   2043.73206,   2004.75085
   2344,        9074.,   2055.06055,    2010.0321
   2345,        9074.,   2066.38916,   2015.31323
   2346,        9074.,   2077.71753,   2020.59436
   2347,        9074.,   2089.04614,   2025.87549
   2348,        9074.,   2100.37451,   2031.15662
   2349,        9074.,   2111.70312,   2036.43774
   2350,        9074.,   2123.03149,   2041.71887
   2351,        9074.,   623.124451,   1342.48938
   2352,        9074.,   634.510498,   1347.79724
   2353,        9074.,   645.896545,   1353.10522
   2354,        9074.,   657.282532,   1358.41321
   2355,        9074.,   668.668579,   1363.72119
   2356,        9074.,   680.054626,   1369.02917
   2357,        9074.,   691.440674,   1374.33716
   2358,        9074.,   702.826721,   1379.64514
   2359,        9074.,   714.212769,     1384.953
   2360,        9074.,   725.598816,   1390.26099
   2361,        9074.,   736.984863,   1395.56897
   2362,        9074.,   748.370911,   1400.87695
   2363,        9074.,   759.756897,   1406.18494
   2364,        9074.,   771.142944,   1411.49292
   2365,        9074.,   782.528992,    1416.8009
   2366,        9074.,   793.915039,   1422.10876
   2367,        9074.,   805.301086,   1427.41675
   2368,        9074.,   816.687134,   1432.72473
   2369,        9074.,   828.073181,   1438.03271
   2370,        9074.,   839.459229,    1443.3407
   2371,        9074.,   850.845215,   1448.64868
   2372,        9074.,   862.231262,   1453.95667
   2373,        9074.,    873.61731,   1459.26453
   2374,        9074.,   885.003357,   1464.57251
   2375,        9074.,   896.389404,   1469.88049
   2376,        9074.,   907.775452,   1475.18848
   2377,        9074.,   919.161499,   1480.49646
   2378,        9074.,   930.547546,   1485.80444
   2379,        9074.,   941.933533,   1491.11243
   2380,        9074.,    953.31958,   1496.42029
   2381,        9074.,   964.705627,   1501.72827
   2382,        9074.,   976.091675,   1507.03625
   2383,        9074.,   987.477722,   1512.34424
   2384,        9074.,    998.86377,   1517.65222
   2385,        9074.,   1010.24982,   1522.96021
   2386,        9074.,   1021.63586,   1528.26819
   2387,        9074.,   1033.02185,   1533.57605
   2388,        9074.,   1044.40796,   1538.88403
   2389,        9074.,   1055.79395,   1544.19202
   2390,        9074.,   1067.18005,       1549.5
   2391,        9074.,   1078.56604,   1554.80798
   2392,        9074.,   1089.95203,   1560.11597
   2393,        9074.,   1101.33813,   1565.42395
   2394,        9074.,   1112.72412,   1570.73181
   2395,        9074.,   1124.11023,   1576.03979
   2396,        9074.,   1135.49622,   1581.34778
   2397,        9074.,   1146.88232,   1586.65576
   2398,        9074.,   1158.26831,   1591.96375
   2399,        9074.,   1169.65442,   1597.27173
   2400,        9074.,   1181.04041,   1602.57971
   2401,        9074.,   1192.42639,   1607.88757
   2402,        9074.,    1203.8125,   1613.19556
   2403,        9074.,   1215.19849,   1618.50354
   2404,        9074.,   1226.58459,   1623.81152
   2405,        9074.,   1237.97058,   1629.11951
   2406,        9074.,   1249.35669,   1634.42749
   2407,        9074.,   1260.74268,   1639.73547
   2408,        9074.,   1272.12866,   1645.04333
   2409,        9074.,   1283.51477,   1650.35132
   2410,        9074.,   1294.90076,    1655.6593
   2411,        9074.,   1306.28687,   1660.96729
   2412,        9074.,   1317.67285,   1666.27527
   2413,        9074.,   1329.05896,   1671.58325
   2414,        9074.,   1340.44495,   1676.89124
   2415,        9074.,   1351.83105,    1682.1991
   2416,        9074.,   1363.21704,   1687.50708
   2417,        9074.,   1374.60303,   1692.81506
   2418,        9074.,   1385.98914,   1698.12305
   2419,        9074.,   1397.37512,   1703.43103
   2420,        9074.,   1408.76123,   1708.73901
   2421,        9074.,   1420.14722,     1714.047
   2422,        9074.,   1431.53333,   1719.35486
   2423,        9074.,   1442.91931,   1724.66284
   2424,        9074.,    1454.3053,   1729.97083
   2425,        9074.,   1465.69141,   1735.27881
   2426,        9074.,   1477.07739,   1740.58679
   2427,        9074.,    1488.4635,   1745.89478
   2428,        9074.,   1499.84949,   1751.20276
   2429,        9074.,    1511.2356,   1756.51062
   2430,        9074.,   11.3284893,   1057.28113
   2431,        9074.,   22.6569786,   1062.56226
   2432,        9074.,    33.985466,   1067.84338
   2433,        9074.,   45.3139572,   1073.12451
   2434,        9074.,   56.6424446,   1078.40564
   2435,        9074.,    67.970932,   1083.68677
   2436,        9074.,   79.2994232,    1088.9679
   2437,        9074.,   90.6279144,   1094.24915
   2438,        9074.,   101.956398,   1099.53027
   2439,        9074.,   113.284889,    1104.8114
   2440,        9074.,    124.61338,   1110.09253
   2441,        9074.,   135.941864,   1115.37366
   2442,        9074.,   147.270355,   1120.65479
   2443,        9074.,   158.598846,   1125.93591
   2444,        9074.,   169.927338,   1131.21704
   2445,        9074.,   181.255829,   1136.49817
   2446,        9074.,   192.584305,    1141.7793
   2447,        9074.,   203.912796,   1147.06042
   2448,        9074.,   215.241287,   1152.34155
   2449,        9074.,   226.569778,   1157.62268
   2450,        9074.,    237.89827,   1162.90381
   2451,        9074.,   249.226761,   1168.18506
   2452,        9074.,   260.555237,   1173.46619
   2453,        9074.,   271.883728,   1178.74731
   2454,        9074.,   283.212219,   1184.02844
   2455,        9074.,    294.54071,   1189.30957
   2456,        9074.,   305.869202,    1194.5907
   2457,        9074.,   317.197693,   1199.87183
   2458,        9074.,   328.526184,   1205.15295
   2459,        9074.,   339.854675,   1210.43408
   2460,        9074.,   351.183167,   1215.71521
   2461,        9074.,   362.511658,   1220.99634
   2462,        9074.,   373.840149,   1226.27747
   2463,        9074.,    385.16861,   1231.55859
   2464,        9074.,   396.497101,   1236.83972
   2465,        9074.,   407.825592,   1242.12097
   2466,        9074.,   419.154083,    1247.4021
   2467,        9074.,   430.482574,   1252.68323
   2468,        9074.,   441.811066,   1257.96436
   2469,        9074.,   453.139557,   1263.24548
   2470,        9074.,   464.468048,   1268.52661
   2471,        9074.,   475.796539,   1273.80774
   2472,        9074.,   487.125031,   1279.08887
   2473,        9074.,   498.453522,      1284.37
   2474,        9074.,   509.782013,   1289.65112
   2475,        9074.,   521.110474,   1294.93225
   2476,        9074.,   532.438965,   1300.21338
   2477,        9074.,   543.767456,   1305.49451
   2478,        9074.,   555.095947,   1310.77563
   2479,        9074.,   566.424438,   1316.05688
   2480,        9074.,    577.75293,   1321.33801
   2481,        9074.,   589.081421,   1326.61914
   2482,        9074.,   600.409912,   1331.90027
   2483,        9074.,  -287.639221,   917.907776
   2484,        9074.,  -276.133667,   923.271484
   2485,        9074.,  -264.628082,   928.635193
   2486,        9074.,  -253.122513,    933.99884
   2487,        9074.,  -241.616943,   939.362549
   2488,        9074.,  -230.111374,   944.726257
   2489,        9074.,  -218.605804,   950.089905
   2490,        9074.,   -207.10025,   955.453613
   2491,        9074.,  -195.594681,   960.817322
   2492,        9074.,  -184.089111,   966.180969
   2493,        9074.,  -172.583542,   971.544678
   2494,        9074.,  -161.077972,   976.908386
   2495,        9074.,  -149.572403,   982.272034
   2496,        9074.,  -138.066833,   987.635742
   2497,        9074.,  -126.561256,   992.999451
   2498,        9074.,  -115.055687,   998.363098
   2499,        9074.,  -103.550125,   1003.72681
   2500,        9074.,  -92.0445557,   1009.09052
   2501,        9074.,  -80.5389862,   1014.45416
   2502,        9074.,  -69.0334167,   1019.81787
   2503,        9074.,  -57.5278435,   1025.18152
   2504,        9074.,  -46.0222778,   1030.54529
   2505,        9074.,  -34.5167084,   1035.90894
   2506,        9074.,  -23.0111389,   1041.27258
   2507,        9074.,  -11.5055695,   1046.63635
   2508,        9074.,  -743.200378,   705.533447
   2509,        9074.,  -731.814331,   710.841431
   2510,        9074.,  -720.428284,   716.149353
   2511,        9074.,  -709.042236,   721.457336
   2512,        9074.,  -697.656189,    726.76532
   2513,        9074.,  -686.270142,   732.073303
   2514,        9074.,  -674.884094,   737.381226
   2515,        9074.,  -663.498047,   742.689209
   2516,        9074.,  -652.112061,   747.997192
   2517,        9074.,  -640.726013,   753.305115
   2518,        9074.,  -629.339966,   758.613098
   2519,        9074.,  -617.953918,   763.921082
   2520,        9074.,  -606.567871,   769.229065
   2521,        9074.,  -595.181824,   774.536987
   2522,        9074.,  -583.795776,   779.844971
   2523,        9074.,  -572.409729,   785.152954
   2524,        9074.,  -561.023743,   790.460876
   2525,        9074.,  -549.637695,    795.76886
   2526,        9074.,  -538.251648,   801.076843
   2527,        9074.,  -526.865601,   806.384827
   2528,        9074.,  -515.479553,   811.692749
   2529,        9074.,  -504.093506,   817.000732
   2530,        9074.,  -492.707489,   822.308716
   2531,        9074.,  -481.321442,   827.616638
   2532,        9074.,  -469.935394,   832.924622
   2533,        9074.,  -458.549347,   838.232605
   2534,        9074.,    -447.1633,   843.540527
   2535,        9074.,  -435.777283,   848.848511
   2536,        9074.,  -424.391235,   854.156494
   2537,        9074.,  -413.005188,   859.464478
   2538,        9074.,  -401.619141,     864.7724
   2539,        9074.,  -390.233124,   870.080383
   2540,        9074.,  -378.847076,   875.388367
   2541,        9074.,  -367.461029,   880.696289
   2542,        9074.,  -356.074982,   886.004272
   2543,        9074.,  -344.688965,   891.312256
   2544,        9074.,  -333.302917,   896.620239
   2545,        9074.,   -321.91687,   901.928162
   2546,        9074.,  -310.530823,   907.236145
   2547,        4537.,   2444.89087,   2191.76392
   2548,        4537.,   2456.27686,   2197.07178
   2549,        4537.,   2467.66284,   2202.37988
   2550,        4537.,   2479.04907,   2207.68774
   2551,        4537.,   2490.43506,   2212.99561
   2552,        4537.,   2501.82104,   2218.30371
   2553,        4537.,   2513.20703,   2223.61157
   2554,        4537.,   2524.59302,   2228.91968
   2555,        4537.,   2535.97925,   2234.22754
   2556,        4537.,   2547.36523,   2239.53564
   2557,        4537.,   2558.75122,   2244.84351
   2558,        4537.,   2570.13721,   2250.15137
   2559,        4537.,   2581.52319,   2255.45947
   2560,        4537.,   2592.90942,   2260.76733
   2561,        4537.,   2604.29541,   2266.07544
   2562,        4537.,    2615.6814,    2271.3833
   2563,        4537.,   2627.06738,   2276.69141
   2564,        4537.,   2638.45361,   2281.99927
   2565,        4537.,    2649.8396,   2287.30713
   2566,        4537.,   2661.22559,   2292.61523
   2567,        4537.,   2672.61157,    2297.9231
   2568,        4537.,   2683.99756,    2303.2312
   2569,        4537.,   2695.38379,   2308.53906
   2570,        4537.,   2706.76978,   2313.84717
   2571,        4537.,   2718.15576,   2319.15503
   2572,        4537.,   2729.54175,   2324.46289
   2573,        4537.,   2740.92798,     2329.771
   2574,        4537.,   2752.31396,   2335.07886
   2575,        4537.,   2763.69995,   2340.38696
   2576,        4537.,   2775.08594,   2345.69482
   2577,        4537.,   2786.47192,   2351.00293
   2578,        4537.,   2797.85815,   2356.31079
   2579,        4537.,   2809.24414,   2361.61865
   2580,        4537.,   2820.63013,   2366.92676
   2581,        4537.,   2832.01611,   2372.23462
   2582,        4537.,   2843.40234,   2377.54272
   2583,        4537.,   2854.78833,   2382.85059
   2584,        4537.,   2866.17432,   2388.15869
   2585,        4537.,    2877.5603,   2393.46655
   2586,        4537.,   2145.86548,   2052.36377
   2587,        4537.,   2157.37109,   2057.72729
   2588,        4537.,   2168.87671,   2063.09106
   2589,        4537.,   2180.38232,   2068.45483
   2590,        4537.,   2191.88794,   2073.81836
   2591,        4537.,   2203.39331,   2079.18213
   2592,        4537.,   2214.89893,    2084.5459
   2593,        4537.,   2226.40454,   2089.90942
   2594,        4537.,   2237.91016,   2095.27319
   2595,        4537.,   2249.41577,   2100.63696
   2596,        4537.,   2260.92114,   2106.00049
   2597,        4537.,   2272.42676,   2111.36426
   2598,        4537.,   2283.93237,   2116.72803
   2599,        4537.,   2295.43799,   2122.09155
   2600,        4537.,    2306.9436,   2127.45532
   2601,        4537.,   2318.44922,   2132.81909
   2602,        4537.,   2329.95459,   2138.18262
   2603,        4537.,   2341.46021,   2143.54639
   2604,        4537.,   2352.96582,   2148.91016
   2605,        4537.,   2364.47144,   2154.27368
   2606,        4537.,   2375.97705,   2159.63745
   2607,        4537.,   2387.48242,   2165.00122
   2608,        4537.,   2398.98804,   2170.36475
   2609,        4537.,   2410.49365,   2175.72852
   2610,        4537.,   2421.99927,   2181.09229
   2611,        4537.,   1533.95007,   1767.09973
   2612,        4537.,   1545.27856,   1772.38086
   2613,        4537.,   1556.60706,   1777.66199
   2614,        4537.,   1567.93555,   1782.94312
   2615,        4537.,   1579.26404,   1788.22437
   2616,        4537.,   1590.59253,   1793.50549
   2617,        4537.,   1601.92102,   1798.78662
   2618,        4537.,   1613.24951,   1804.06775
   2619,        4537.,     1624.578,   1809.34888
   2620,        4537.,   1635.90649,      1814.63
   2621,        4537.,   1647.23499,   1819.91113
   2622,        4537.,   1658.56348,   1825.19226
   2623,        4537.,   1669.89197,   1830.47339
   2624,        4537.,   1681.22046,   1835.75452
   2625,        4537.,   1692.54895,   1841.03564
   2626,        4537.,   1703.87744,   1846.31677
   2627,        4537.,   1715.20593,    1851.5979
   2628,        4537.,   1726.53442,   1856.87903
   2629,        4537.,   1737.86292,   1862.16028
   2630,        4537.,   1749.19141,   1867.44141
   2631,        4537.,    1760.5199,   1872.72253
   2632,        4537.,   1771.84839,   1878.00366
   2633,        4537.,   1783.17688,   1883.28479
   2634,        4537.,   1794.50537,   1888.56592
   2635,        4537.,   1805.83386,   1893.84705
   2636,        4537.,   1817.16235,   1899.12817
   2637,        4537.,   1828.49084,    1904.4093
   2638,        4537.,   1839.81934,   1909.69043
   2639,        4537.,   1851.14783,   1914.97156
   2640,        4537.,   1862.47632,   1920.25269
   2641,        4537.,   1873.80481,   1925.53381
   2642,        4537.,    1885.1333,   1930.81494
   2643,        4537.,   1896.46179,   1936.09619
   2644,        4537.,   1907.79016,   1941.37732
   2645,        4537.,   1919.11865,   1946.65845
   2646,        4537.,   1930.44714,   1951.93958
   2647,        4537.,   1941.77563,    1957.2207
   2648,        4537.,   1953.10413,   1962.50183
   2649,        4537.,   1964.43262,   1967.78296
   2650,        4537.,   1975.76111,   1973.06409
   2651,        4537.,    1987.0896,   1978.34521
   2652,        4537.,   1998.41809,   1983.62634
   2653,        4537.,   2009.74658,   1988.90747
   2654,        4537.,   2021.07507,    1994.1886
   2655,        4537.,   2032.40356,   1999.46973
   2656,        4537.,   2043.73206,   2004.75085
   2657,        4537.,   2055.06055,    2010.0321
   2658,        4537.,   2066.38916,   2015.31323
   2659,        4537.,   2077.71753,   2020.59436
   2660,        4537.,   2089.04614,   2025.87549
   2661,        4537.,   2100.37451,   2031.15662
   2662,        4537.,   2111.70312,   2036.43774
   2663,        4537.,   2123.03149,   2041.71887
   2664,        4537.,   623.124451,   1342.48938
   2665,        4537.,   634.510498,   1347.79724
   2666,        4537.,   645.896545,   1353.10522
   2667,        4537.,   657.282532,   1358.41321
   2668,        4537.,   668.668579,   1363.72119
   2669,        4537.,   680.054626,   1369.02917
   2670,        4537.,   691.440674,   1374.33716
   2671,        4537.,   702.826721,   1379.64514
   2672,        4537.,   714.212769,     1384.953
   2673,        4537.,   725.598816,   1390.26099
   2674,        4537.,   736.984863,   1395.56897
   2675,        4537.,   748.370911,   1400.87695
   2676,        4537.,   759.756897,   1406.18494
   2677,        4537.,   771.142944,   1411.49292
   2678,        4537.,   782.528992,    1416.8009
   2679,        4537.,   793.915039,   1422.10876
   2680,        4537.,   805.301086,   1427.41675
   2681,        4537.,   816.687134,   1432.72473
   2682,        4537.,   828.073181,   1438.03271
   2683,        4537.,   839.459229,    1443.3407
   2684,        4537.,   850.845215,   1448.64868
   2685,        4537.,   862.231262,   1453.95667
   2686,        4537.,    873.61731,   1459.26453
   2687,        4537.,   885.003357,   1464.57251
   2688,        4537.,   896.389404,   1469.88049
   2689,        4537.,   907.775452,   1475.18848
   2690,        4537.,   919.161499,   1480.49646
   2691,        4537.,   930.547546,   1485.80444
   2692,        4537.,   941.933533,   1491.11243
   2693,        4537.,    953.31958,   1496.42029
   2694,        4537.,   964.705627,   1501.72827
   2695,        4537.,   976.091675,   1507.03625
   2696,        4537.,   987.477722,   1512.34424
   2697,        4537.,    998.86377,   1517.65222
   2698,        4537.,   1010.24982,   1522.96021
   2699,        4537.,   1021.63586,   1528.26819
   2700,        4537.,   1033.02185,   1533.57605
   2701,        4537.,   1044.40796,   1538.88403
   2702,        4537.,   1055.79395,   1544.19202
   2703,        4537.,   1067.18005,       1549.5
   2704,        4537.,   1078.56604,   1554.80798
   2705,        4537.,   1089.95203,   1560.11597
   2706,        4537.,   1101.33813,   1565.42395
   2707,        4537.,   1112.72412,   1570.73181
   2708,        4537.,   1124.11023,   1576.03979
   2709,        4537.,   1135.49622,   1581.34778
   2710,        4537.,   1146.88232,   1586.65576
   2711,        4537.,   1158.26831,   1591.96375
   2712,        4537.,   1169.65442,   1597.27173
   2713,        4537.,   1181.04041,   1602.57971
   2714,        4537.,   1192.42639,   1607.88757
   2715,        4537.,    1203.8125,   1613.19556
   2716,        4537.,   1215.19849,   1618.50354
   2717,        4537.,   1226.58459,   1623.81152
   2718,        4537.,   1237.97058,   1629.11951
   2719,        4537.,   1249.35669,   1634.42749
   2720,        4537.,   1260.74268,   1639.73547
   2721,        4537.,   1272.12866,   1645.04333
   2722,        4537.,   1283.51477,   1650.35132
   2723,        4537.,   1294.90076,    1655.6593
   2724,        4537.,   1306.28687,   1660.96729
   2725,        4537.,   1317.67285,   1666.27527
   2726,        4537.,   1329.05896,   1671.58325
   2727,        4537.,   1340.44495,   1676.89124
   2728,        4537.,   1351.83105,    1682.1991
   2729,        4537.,   1363.21704,   1687.50708
   2730,        4537.,   1374.60303,   1692.81506
   2731,        4537.,   1385.98914,   1698.12305
   2732,        4537.,   1397.37512,   1703.43103
   2733,        4537.,   1408.76123,   1708.73901
   2734,        4537.,   1420.14722,     1714.047
   2735,        4537.,   1431.53333,   1719.35486
   2736,        4537.,   1442.91931,   1724.66284
   2737,        4537.,    1454.3053,   1729.97083
   2738,        4537.,   1465.69141,   1735.27881
   2739,        4537.,   1477.07739,   1740.58679
   2740,        4537.,    1488.4635,   1745.89478
   2741,        4537.,   1499.84949,   1751.20276
   2742,        4537.,    1511.2356,   1756.51062
   2743,        4537.,   11.3284893,   1057.28113
   2744,        4537.,   22.6569786,   1062.56226
   2745,        4537.,    33.985466,   1067.84338
   2746,        4537.,   45.3139572,   1073.12451
   2747,        4537.,   56.6424446,   1078.40564
   2748,        4537.,    67.970932,   1083.68677
   2749,        4537.,   79.2994232,    1088.9679
   2750,        4537.,   90.6279144,   1094.24915
   2751,        4537.,   101.956398,   1099.53027
   2752,        4537.,   113.284889,    1104.8114
   2753,        4537.,    124.61338,   1110.09253
   2754,        4537.,   135.941864,   1115.37366
   2755,        4537.,   147.270355,   1120.65479
   2756,        4537.,   158.598846,   1125.93591
   2757,        4537.,   169.927338,   1131.21704
   2758,        4537.,   181.255829,   1136.49817
   2759,        4537.,   192.584305,    1141.7793
   2760,        4537.,   203.912796,   1147.06042
   2761,        4537.,   215.241287,   1152.34155
   2762,        4537.,   226.569778,   1157.62268
   2763,        4537.,    237.89827,   1162.90381
   2764,        4537.,   249.226761,   1168.18506
   2765,        4537.,   260.555237,   1173.46619
   2766,        4537.,   271.883728,   1178.74731
   2767,        4537.,   283.212219,   1184.02844
   2768,        4537.,    294.54071,   1189.30957
   2769,        4537.,   305.869202,    1194.5907
   2770,        4537.,   317.197693,   1199.87183
   2771,        4537.,   328.526184,   1205.15295
   2772,        4537.,   339.854675,   1210.43408
   2773,        4537.,   351.183167,   1215.71521
   2774,        4537.,   362.511658,   1220.99634
   2775,        4537.,   373.840149,   1226.27747
   2776,        4537.,    385.16861,   1231.55859
   2777,        4537.,   396.497101,   1236.83972
   2778,        4537.,   407.825592,   1242.12097
   2779,        4537.,   419.154083,    1247.4021
   2780,        4537.,   430.482574,   1252.68323
   2781,        4537.,   441.811066,   1257.96436
   2782,        4537.,   453.139557,   1263.24548
   2783,        4537.,   464.468048,   1268.52661
   2784,        4537.,   475.796539,   1273.80774
   2785,        4537.,   487.125031,   1279.08887
   2786,        4537.,   498.453522,      1284.37
   2787,        4537.,   509.782013,   1289.65112
   2788,        4537.,   521.110474,   1294.93225
   2789,        4537.,   532.438965,   1300.21338
   2790,        4537.,   543.767456,   1305.49451
   2791,        4537.,   555.095947,   1310.77563
   2792,        4537.,   566.424438,   1316.05688
   2793,        4537.,    577.75293,   1321.33801
   2794,        4537.,   589.081421,   1326.61914
   2795,        4537.,   600.409912,   1331.90027
   2796,        4537.,  -287.639221,   917.907776
   2797,        4537.,  -276.133667,   923.271484
   2798,        4537.,  -264.628082,   928.635193
   2799,        4537.,  -253.122513,    933.99884
   2800,        4537.,  -241.616943,   939.362549
   2801,        4537.,  -230.111374,   944.726257
   2802,        4537.,  -218.605804,   950.089905
   2803,        4537.,   -207.10025,   955.453613
   2804,        4537.,  -195.594681,   960.817322
   2805,        4537.,  -184.089111,   966.180969
   2806,        4537.,  -172.583542,   971.544678
   2807,        4537.,  -161.077972,   976.908386
   2808,        4537.,  -149.572403,   982.272034
   2809,        4537.,  -138.066833,   987.635742
   2810,        4537.,  -126.561256,   992.999451
   2811,        4537.,  -115.055687,   998.363098
   2812,        4537.,  -103.550125,   1003.72681
   2813,        4537.,  -92.0445557,   1009.09052
   2814,        4537.,  -80.5389862,   1014.45416
   2815,        4537.,  -69.0334167,   1019.81787
   2816,        4537.,  -57.5278435,   1025.18152
   2817,        4537.,  -46.0222778,   1030.54529
   2818,        4537.,  -34.5167084,   1035.90894
   2819,        4537.,  -23.0111389,   1041.27258
   2820,        4537.,  -11.5055695,   1046.63635
   2821,        4537.,  -743.200378,   705.533447
   2822,        4537.,  -731.814331,   710.841431
   2823,        4537.,  -720.428284,   716.149353
   2824,        4537.,  -709.042236,   721.457336
   2825,        4537.,  -697.656189,    726.76532
   2826,        4537.,  -686.270142,   732.073303
   2827,        4537.,  -674.884094,   737.381226
   2828,        4537.,  -663.498047,   742.689209
   2829,        4537.,  -652.112061,   747.997192
   2830,        4537.,  -640.726013,   753.305115
   2831,        4537.,  -629.339966,   758.613098
   2832,        4537.,  -617.953918,   763.921082
   2833,        4537.,  -606.567871,   769.229065
   2834,        4537.,  -595.181824,   774.536987
   2835,        4537.,  -583.795776,   779.844971
   2836,        4537.,  -572.409729,   785.152954
   2837,        4537.,  -561.023743,   790.460876
   2838,        4537.,  -549.637695,    795.76886
   2839,        4537.,  -538.251648,   801.076843
   2840,        4537.,  -526.865601,   806.384827
   2841,        4537.,  -515.479553,   811.692749
   2842,        4537.,  -504.093506,   817.000732
   2843,        4537.,  -492.707489,   822.308716
   2844,        4537.,  -481.321442,   827.616638
   2845,        4537.,  -469.935394,   832.924622
   2846,        4537.,  -458.549347,   838.232605
   2847,        4537.,    -447.1633,   843.540527
   2848,        4537.,  -435.777283,   848.848511
   2849,        4537.,  -424.391235,   854.156494
   2850,        4537.,  -413.005188,   859.464478
   2851,        4537.,  -401.619141,     864.7724
   2852,        4537.,  -390.233124,   870.080383
   2853,        4537.,  -378.847076,   875.388367
   2854,        4537.,  -367.461029,   880.696289
   2855,        4537.,  -356.074982,   886.004272
   2856,        4537.,  -344.688965,   891.312256
   2857,        4537.,  -333.302917,   896.620239
   2858,        4537.,   -321.91687,   901.928162
   2859,        4537.,  -310.530823,   907.236145
   2860,           0.,   2145.86548,   2052.36377
   2861,           0.,   2157.37109,   2057.72729
   2862,           0.,   2168.87671,   2063.09106
   2863,           0.,   2180.38232,   2068.45483
   2864,           0.,   2191.88794,   2073.81836
   2865,           0.,   2203.39331,   2079.18213
   2866,           0.,   2214.89893,    2084.5459
   2867,           0.,   2226.40454,   2089.90942
   2868,           0.,   2237.91016,   2095.27319
   2869,           0.,   2249.41577,   2100.63696
   2870,           0.,   2260.92114,   2106.00049
   2871,           0.,   2272.42676,   2111.36426
   2872,           0.,   2283.93237,   2116.72803
   2873,           0.,   2295.43799,   2122.09155
   2874,           0.,    2306.9436,   2127.45532
   2875,           0.,   2318.44922,   2132.81909
   2876,           0.,   2329.95459,   2138.18262
   2877,           0.,   2341.46021,   2143.54639
   2878,           0.,   2352.96582,   2148.91016
   2879,           0.,   2364.47144,   2154.27368
   2880,           0.,   2375.97705,   2159.63745
   2881,           0.,   2387.48242,   2165.00122
   2882,           0.,   2398.98804,   2170.36475
   2883,           0.,   2410.49365,   2175.72852
   2884,           0.,   2421.99927,   2181.09229
   2885,           0.,   1533.95007,   1767.09973
   2886,           0.,   1545.27856,   1772.38086
   2887,           0.,   1556.60706,   1777.66199
   2888,           0.,   1567.93555,   1782.94312
   2889,           0.,   1579.26404,   1788.22437
   2890,           0.,   1590.59253,   1793.50549
   2891,           0.,   1601.92102,   1798.78662
   2892,           0.,   1613.24951,   1804.06775
   2893,           0.,     1624.578,   1809.34888
   2894,           0.,   1635.90649,      1814.63
   2895,           0.,   1647.23499,   1819.91113
   2896,           0.,   1658.56348,   1825.19226
   2897,           0.,   1669.89197,   1830.47339
   2898,           0.,   1681.22046,   1835.75452
   2899,           0.,   1692.54895,   1841.03564
   2900,           0.,   1703.87744,   1846.31677
   2901,           0.,   1715.20593,    1851.5979
   2902,           0.,   1726.53442,   1856.87903
   2903,           0.,   1737.86292,   1862.16028
   2904,           0.,   1749.19141,   1867.44141
   2905,           0.,    1760.5199,   1872.72253
   2906,           0.,   1771.84839,   1878.00366
   2907,           0.,   1783.17688,   1883.28479
   2908,           0.,   1794.50537,   1888.56592
   2909,           0.,   1805.83386,   1893.84705
   2910,           0.,   1817.16235,   1899.12817
   2911,           0.,   1828.49084,    1904.4093
   2912,           0.,   1839.81934,   1909.69043
   2913,           0.,   1851.14783,   1914.97156
   2914,           0.,   1862.47632,   1920.25269
   2915,           0.,   1873.80481,   1925.53381
   2916,           0.,    1885.1333,   1930.81494
   2917,           0.,   1896.46179,   1936.09619
   2918,           0.,   1907.79016,   1941.37732
   2919,           0.,   1919.11865,   1946.65845
   2920,           0.,   1930.44714,   1951.93958
   2921,           0.,   1941.77563,    1957.2207
   2922,           0.,   1953.10413,   1962.50183
   2923,           0.,   1964.43262,   1967.78296
   2924,           0.,   1975.76111,   1973.06409
   2925,           0.,    1987.0896,   1978.34521
   2926,           0.,   1998.41809,   1983.62634
   2927,           0.,   2009.74658,   1988.90747
   2928,           0.,   2021.07507,    1994.1886
   2929,           0.,   2032.40356,   1999.46973
   2930,           0.,   2043.73206,   2004.75085
   2931,           0.,   2055.06055,    2010.0321
   2932,           0.,   2066.38916,   2015.31323
   2933,           0.,   2077.71753,   2020.59436
   2934,           0.,   2089.04614,   2025.87549
   2935,           0.,   2100.37451,   2031.15662
   2936,           0.,   2111.70312,   2036.43774
   2937,           0.,   2123.03149,   2041.71887
   2938,           0.,   623.124451,   1342.48938
   2939,           0.,   634.510498,   1347.79724
   2940,           0.,   645.896545,   1353.10522
   2941,           0.,   657.282532,   1358.41321
   2942,           0.,   668.668579,   1363.72119
   2943,           0.,   680.054626,   1369.02917
   2944,           0.,   691.440674,   1374.33716
   2945,           0.,   702.826721,   1379.64514
   2946,           0.,   714.212769,     1384.953
   2947,           0.,   725.598816,   1390.26099
   2948,           0.,   736.984863,   1395.56897
   2949,           0.,   748.370911,   1400.87695
   2950,           0.,   759.756897,   1406.18494
   2951,           0.,   771.142944,   1411.49292
   2952,           0.,   782.528992,    1416.8009
   2953,           0.,   793.915039,   1422.10876
   2954,           0.,   805.301086,   1427.41675
   2955,           0.,   816.687134,   1432.72473
   2956,           0.,   828.073181,   1438.03271
   2957,           0.,   839.459229,    1443.3407
   2958,           0.,   850.845215,   1448.64868
   2959,           0.,   862.231262,   1453.95667
   2960,           0.,    873.61731,   1459.26453
   2961,           0.,   885.003357,   1464.57251
   2962,           0.,   896.389404,   1469.88049
   2963,           0.,   907.775452,   1475.18848
   2964,           0.,   919.161499,   1480.49646
   2965,           0.,   930.547546,   1485.80444
   2966,           0.,   941.933533,   1491.11243
   2967,           0.,    953.31958,   1496.42029
   2968,           0.,   964.705627,   1501.72827
   2969,           0.,   976.091675,   1507.03625
   2970,           0.,   987.477722,   1512.34424
   2971,           0.,    998.86377,   1517.65222
   2972,           0.,   1010.24982,   1522.96021
   2973,           0.,   1021.63586,   1528.26819
   2974,           0.,   1033.02185,   1533.57605
   2975,           0.,   1044.40796,   1538.88403
   2976,           0.,   1055.79395,   1544.19202
   2977,           0.,   1067.18005,       1549.5
   2978,           0.,   1078.56604,   1554.80798
   2979,           0.,   1089.95203,   1560.11597
   2980,           0.,   1101.33813,   1565.42395
   2981,           0.,   1112.72412,   1570.73181
   2982,           0.,   1124.11023,   1576.03979
   2983,           0.,   1135.49622,   1581.34778
   2984,           0.,   1146.88232,   1586.65576
   2985,           0.,   1158.26831,   1591.96375
   2986,           0.,   1169.65442,   1597.27173
   2987,           0.,   1181.04041,   1602.57971
   2988,           0.,   1192.42639,   1607.88757
   2989,           0.,    1203.8125,   1613.19556
   2990,           0.,   1215.19849,   1618.50354
   2991,           0.,   1226.58459,   1623.81152
   2992,           0.,   1237.97058,   1629.11951
   2993,           0.,   1249.35669,   1634.42749
   2994,           0.,   1260.74268,   1639.73547
   2995,           0.,   1272.12866,   1645.04333
   2996,           0.,   1283.51477,   1650.35132
   2997,           0.,   1294.90076,    1655.6593
   2998,           0.,   1306.28687,   1660.96729
   2999,           0.,   1317.67285,   1666.27527
   3000,           0.,   1329.05896,   1671.58325
   3001,           0.,   1340.44495,   1676.89124
   3002,           0.,   1351.83105,    1682.1991
   3003,           0.,   1363.21704,   1687.50708
   3004,           0.,   1374.60303,   1692.81506
   3005,           0.,   1385.98914,   1698.12305
   3006,           0.,   1397.37512,   1703.43103
   3007,           0.,   1408.76123,   1708.73901
   3008,           0.,   1420.14722,     1714.047
   3009,           0.,   1431.53333,   1719.35486
   3010,           0.,   1442.91931,   1724.66284
   3011,           0.,    1454.3053,   1729.97083
   3012,           0.,   1465.69141,   1735.27881
   3013,           0.,   1477.07739,   1740.58679
   3014,           0.,    1488.4635,   1745.89478
   3015,           0.,   1499.84949,   1751.20276
   3016,           0.,    1511.2356,   1756.51062
   3017,           0.,   11.3284893,   1057.28113
   3018,           0.,   22.6569786,   1062.56226
   3019,           0.,    33.985466,   1067.84338
   3020,           0.,   45.3139572,   1073.12451
   3021,           0.,   56.6424446,   1078.40564
   3022,           0.,    67.970932,   1083.68677
   3023,           0.,   79.2994232,    1088.9679
   3024,           0.,   90.6279144,   1094.24915
   3025,           0.,   101.956398,   1099.53027
   3026,           0.,   113.284889,    1104.8114
   3027,           0.,    124.61338,   1110.09253
   3028,           0.,   135.941864,   1115.37366
   3029,           0.,   147.270355,   1120.65479
   3030,           0.,   158.598846,   1125.93591
   3031,           0.,   169.927338,   1131.21704
   3032,           0.,   181.255829,   1136.49817
   3033,           0.,   192.584305,    1141.7793
   3034,           0.,   203.912796,   1147.06042
   3035,           0.,   215.241287,   1152.34155
   3036,           0.,   226.569778,   1157.62268
   3037,           0.,    237.89827,   1162.90381
   3038,           0.,   249.226761,   1168.18506
   3039,           0.,   260.555237,   1173.46619
   3040,           0.,   271.883728,   1178.74731
   3041,           0.,   283.212219,   1184.02844
   3042,           0.,    294.54071,   1189.30957
   3043,           0.,   305.869202,    1194.5907
   3044,           0.,   317.197693,   1199.87183
   3045,           0.,   328.526184,   1205.15295
   3046,           0.,   339.854675,   1210.43408
   3047,           0.,   351.183167,   1215.71521
   3048,           0.,   362.511658,   1220.99634
   3049,           0.,   373.840149,   1226.27747
   3050,           0.,    385.16861,   1231.55859
   3051,           0.,   396.497101,   1236.83972
   3052,           0.,   407.825592,   1242.12097
   3053,           0.,   419.154083,    1247.4021
   3054,           0.,   430.482574,   1252.68323
   3055,           0.,   441.811066,   1257.96436
   3056,           0.,   453.139557,   1263.24548
   3057,           0.,   464.468048,   1268.52661
   3058,           0.,   475.796539,   1273.80774
   3059,           0.,   487.125031,   1279.08887
   3060,           0.,   498.453522,      1284.37
   3061,           0.,   509.782013,   1289.65112
   3062,           0.,   521.110474,   1294.93225
   3063,           0.,   532.438965,   1300.21338
   3064,           0.,   543.767456,   1305.49451
   3065,           0.,   555.095947,   1310.77563
   3066,           0.,   566.424438,   1316.05688
   3067,           0.,    577.75293,   1321.33801
   3068,           0.,   589.081421,   1326.61914
   3069,           0.,   600.409912,   1331.90027
   3070,           0.,  -287.639221,   917.907776
   3071,           0.,  -276.133667,   923.271484
   3072,           0.,  -264.628082,   928.635193
   3073,           0.,  -253.122513,    933.99884
   3074,           0.,  -241.616943,   939.362549
   3075,           0.,  -230.111374,   944.726257
   3076,           0.,  -218.605804,   950.089905
   3077,           0.,   -207.10025,   955.453613
   3078,           0.,  -195.594681,   960.817322
   3079,           0.,  -184.089111,   966.180969
   3080,           0.,  -172.583542,   971.544678
   3081,           0.,  -161.077972,   976.908386
   3082,           0.,  -149.572403,   982.272034
   3083,           0.,  -138.066833,   987.635742
   3084,           0.,  -126.561256,   992.999451
   3085,           0.,  -115.055687,   998.363098
   3086,           0.,  -103.550125,   1003.72681
   3087,           0.,  -92.0445557,   1009.09052
   3088,           0.,  -80.5389862,   1014.45416
   3089,           0.,  -69.0334167,   1019.81787
   3090,           0.,  -57.5278435,   1025.18152
   3091,           0.,  -46.0222778,   1030.54529
   3092,           0.,  -34.5167084,   1035.90894
   3093,           0.,  -23.0111389,   1041.27258
   3094,           0.,  -11.5055695,   1046.63635
   3095,           0.,  -743.200378,   705.533447
   3096,           0.,  -731.814331,   710.841431
   3097,           0.,  -720.428284,   716.149353
   3098,           0.,  -709.042236,   721.457336
   3099,           0.,  -697.656189,    726.76532
   3100,           0.,  -686.270142,   732.073303
   3101,           0.,  -674.884094,   737.381226
   3102,           0.,  -663.498047,   742.689209
   3103,           0.,  -652.112061,   747.997192
   3104,           0.,  -640.726013,   753.305115
   3105,           0.,  -629.339966,   758.613098
   3106,           0.,  -617.953918,   763.921082
   3107,           0.,  -606.567871,   769.229065
   3108,           0.,  -595.181824,   774.536987
   3109,           0.,  -583.795776,   779.844971
   3110,           0.,  -572.409729,   785.152954
   3111,           0.,  -561.023743,   790.460876
   3112,           0.,  -549.637695,    795.76886
   3113,           0.,  -538.251648,   801.076843
   3114,           0.,  -526.865601,   806.384827
   3115,           0.,  -515.479553,   811.692749
   3116,           0.,  -504.093506,   817.000732
   3117,           0.,  -492.707489,   822.308716
   3118,           0.,  -481.321442,   827.616638
   3119,           0.,  -469.935394,   832.924622
   3120,           0.,  -458.549347,   838.232605
   3121,           0.,    -447.1633,   843.540527
   3122,           0.,  -435.777283,   848.848511
   3123,           0.,  -424.391235,   854.156494
   3124,           0.,  -413.005188,   859.464478
   3125,           0.,  -401.619141,     864.7724
   3126,           0.,  -390.233124,   870.080383
   3127,           0.,  -378.847076,   875.388367
   3128,           0.,  -367.461029,   880.696289
   3129,           0.,  -356.074982,   886.004272
   3130,           0.,  -344.688965,   891.312256
   3131,           0.,  -333.302917,   896.620239
   3132,           0.,   -321.91687,   901.928162
   3133,           0.,  -310.530823,   907.236145
   3134,       18148.,   2134.36011,   429.310242
   3135,       18148.,   2134.36011,   441.850464
   3136,       18148.,   2134.36011,   454.390686
   3137,       18148.,   2134.36011,   466.930908
   3138,       18148.,   2134.36011,   479.471161
   3139,       18148.,   2134.36011,   492.011383
   3140,       18148.,   2134.36011,   504.551605
   3141,       18148.,   2134.36011,   517.091858
   3142,       18148.,   2134.36011,    529.63208
   3143,       18148.,   2134.36011,   542.172302
   3144,       18148.,   2134.36011,   554.712524
   3145,       18148.,   2134.36011,   567.252747
   3146,       18148.,   2134.36011,    579.79303
   3147,       18148.,   2134.36011,   592.333252
   3148,       18148.,   2134.36011,   604.873474
   3149,       18148.,   2134.36011,   617.413696
   3150,       18148.,   2134.36011,   629.953918
   3151,       18148.,   2134.36011,   642.494141
   3152,       18148.,   2134.36011,   655.034363
   3153,       18148.,   2134.36011,   667.574585
   3154,       18148.,   2134.36011,   680.114868
   3155,       18148.,   2134.36011,    692.65509
   3156,       18148.,   2134.36011,   705.195312
   3157,       18148.,   2134.36011,   717.735535
   3158,       18148.,   2134.36011,   730.275757
   3159,       18148.,   2134.36011,   742.815979
   3160,       18148.,   2134.36011,   755.356201
   3161,       18148.,   2134.36011,   767.896484
   3162,       18148.,   2134.36011,   780.436707
   3163,       18148.,   2134.36011,   792.976929
   3164,       18148.,   2134.36011,   805.517151
   3165,       18148.,   2134.36011,   818.057373
   3166,       18148.,   2134.36011,   830.597595
   3167,       18148.,   2134.36011,   843.137817
   3168,       18148.,   2134.36011,   855.678101
   3169,       18148.,   2134.36011,   868.218323
   3170,       18148.,   2134.36011,   880.758545
   3171,       18148.,   2134.36011,   893.298767
   3172,       18148.,   2134.36011,   905.838989
   3173,       18148.,   2134.36011,   918.379211
   3174,       18148.,   2134.36011,   930.919434
   3175,       18148.,   2134.36011,   943.459717
   3176,       18148.,   2134.36011,   955.999939
   3177,       18148.,   2134.36011,   968.540161
   3178,       18148.,   2134.36011,   981.080383
   3179,       18148.,   2134.36011,   993.620605
   3180,       18148.,   2134.36011,   1006.16083
   3181,       18148.,   2134.36011,   1018.70105
   3182,       18148.,   2134.36011,   1031.24133
   3183,       18148.,   2134.36011,   1043.78149
   3184,       18148.,   2134.36011,   1056.32178
   3185,       18148.,   2134.36011,   1068.86206
   3186,       18148.,   2134.36011,   1081.40222
   3187,       18148.,   2134.36011,    1093.9425
   3188,       18148.,   2134.36011,   1106.48267
   3189,       18148.,   2134.36011,   1119.02295
   3190,       18148.,   2134.36011,   1131.56311
   3191,       18148.,   2134.36011,   1144.10339
   3192,       18148.,   2134.36011,   1156.64355
   3193,       18148.,   2134.36011,   1169.18384
   3194,       18148.,   2134.36011,   1181.72412
   3195,       18148.,   2134.36011,   1194.26428
   3196,       18148.,   2134.36011,   1206.80457
   3197,       18148.,   2134.36011,   1219.34473
   3198,       18148.,   2134.36011,   1231.88501
   3199,       18148.,   2134.36011,   1244.42517
   3200,       18148.,   2134.36011,   1256.96545
   3201,       18148.,   2134.36011,   1269.50574
   3202,       18148.,   2134.36011,    1282.0459
   3203,       18148.,   2134.36011,   1294.58618
   3204,       18148.,   2134.36011,   1307.12634
   3205,       18148.,   2134.36011,   1319.66663
   3206,       18148.,   2134.36011,   1332.20679
   3207,       18148.,   2134.36011,   1344.74707
   3208,       18148.,   2134.36011,   1357.28735
   3209,       18148.,   2134.36011,   1369.82751
   3210,       18148.,   2134.36011,    1382.3678
   3211,       18148.,   2134.36011,   1394.90796
   3212,       18148.,   2134.36011,   1407.44824
   3213,       18148.,   2134.36011,    1419.9884
   3214,       18148.,   2134.36011,   1432.52869
   3215,       18148.,   2134.36011,   1445.06897
   3216,       18148.,   2134.36011,   1457.60913
   3217,       18148.,   2134.36011,   1470.14941
   3218,       18148.,   2134.36011,   1482.68958
   3219,       18148.,   2134.36011,   1495.22986
   3220,       18148.,   2134.36011,   1507.77002
   3221,       18148.,   2134.36011,    1520.3103
   3222,       18148.,   2134.36011,   1532.85059
   3223,       18148.,   2134.36011,   1545.39075
   3224,       18148.,   2134.36011,   1557.93103
   3225,       18148.,   2134.36011,   1570.47119
   3226,       18148.,   2134.36011,   1583.01147
   3227,       18148.,   2134.36011,   1595.55164
   3228,       18148.,   2134.36011,   1608.09192
   3229,       18148.,   2134.36011,    1620.6322
   3230,       18148.,   2134.36011,   1633.17236
   3231,       18148.,   2134.36011,   1645.71265
   3232,       18148.,   2134.36011,   1658.25281
   3233,       18148.,   2134.36011,   1670.79309
   3234,       18148.,   2134.36011,   1683.33325
   3235,       18148.,   2134.36011,   1695.87354
   3236,       18148.,   2134.36011,   1708.41382
   3237,       18148.,   2134.36011,   1720.95398
   3238,       18148.,   2134.36011,   1733.49426
   3239,       18148.,   2134.36011,   1746.03442
   3240,       18148.,   2134.36011,   1758.57471
   3241,       18148.,   2134.36011,   1771.11487
   3242,       18148.,   2134.36011,   1783.65515
   3243,       18148.,   2134.36011,   1796.19543
   3244,       18148.,   2134.36011,    1808.7356
   3245,       18148.,   2134.36011,   1821.27588
   3246,       18148.,   2134.36011,   1833.81604
   3247,       18148.,   2134.36011,   1846.35632
   3248,       18148.,   2134.36011,   1858.89648
   3249,       18148.,   2134.36011,   1871.43677
   3250,       18148.,   2134.36011,   1883.97705
   3251,       18148.,   2134.36011,   1896.51721
   3252,       18148.,   2134.36011,    1909.0575
   3253,       18148.,   2134.36011,   1921.59766
   3254,       18148.,   2134.36011,   1934.13794
   3255,       18148.,   2134.36011,    1946.6781
   3256,       18148.,   2134.36011,   1959.21838
   3257,       18148.,   2134.36011,   1971.75867
   3258,       18148.,   2134.36011,   1984.29883
   3259,       18148.,   2134.36011,   1996.83911
   3260,       18148.,   2134.36011,   2009.37927
   3261,       18148.,   2134.36011,   2021.91956
   3262,       18148.,   2134.36011,   2034.45972
   3263,       18148.,   2134.36011,   12.6293936
   3264,       18148.,   2134.36011,   25.2587872
   3265,       18148.,   2134.36011,   37.8881836
   3266,       18148.,   2134.36011,   50.5175743
   3267,       18148.,   2134.36011,   63.1469688
   3268,       18148.,   2134.36011,   75.7763672
   3269,       18148.,   2134.36011,   88.4057541
   3270,       18148.,   2134.36011,   101.035149
   3271,       18148.,   2134.36011,   113.664543
   3272,       18148.,   2134.36011,   126.293938
   3273,       18148.,   2134.36011,    138.92334
   3274,       18148.,   2134.36011,   151.552734
   3275,       18148.,   2134.36011,   164.182114
   3276,       18148.,   2134.36011,   176.811508
   3277,       18148.,   2134.36011,   189.440903
   3278,       18148.,   2134.36011,   202.070297
   3279,       18148.,   2134.36011,   214.699692
   3280,       18148.,   2134.36011,   227.329086
   3281,       18148.,   2134.36011,   239.958481
   3282,       18148.,   2134.36011,   252.587875
   3283,       18148.,   2134.36011,   265.217285
   3284,       18148.,   2134.36011,    277.84668
   3285,       18148.,   2134.36011,   290.476074
   3286,       18148.,   2134.36011,   303.105469
   3287,       18148.,   2134.36011,   315.734863
   3288,       18148.,   2134.36011,   328.364227
   3289,       18148.,   2134.36011,   340.993622
   3290,       18148.,   2134.36011,   353.623016
   3291,       18148.,   2134.36011,   366.252411
   3292,       18148.,   2134.36011,   378.881805
   3293,       18148.,   2134.36011,     391.5112
   3294,       18148.,   2134.36011,   404.140594
   3295,   17748.0449,   1522.62158,    1761.8186
   3296,    17760.543,   1522.62158,    1761.8186
   3297,    17773.041,   1522.62158,    1761.8186
   3298,   17785.5391,   1522.62158,    1761.8186
   3299,   17798.0391,   1522.62158,    1761.8186
   3300,   17810.5371,   1522.62158,    1761.8186
   3301,   17823.0352,   1522.62158,    1761.8186
   3302,   17835.5352,   1522.62158,    1761.8186
   3303,   17848.0332,   1522.62158,    1761.8186
   3304,   17860.5312,   1522.62158,    1761.8186
   3305,   17873.0312,   1522.62158,    1761.8186
   3306,   17885.5293,   1522.62158,    1761.8186
   3307,   17898.0273,   1522.62158,    1761.8186
   3308,   17910.5254,   1522.62158,    1761.8186
   3309,   17923.0254,   1522.62158,    1761.8186
   3310,   17935.5234,   1522.62158,    1761.8186
   3311,   17948.0215,   1522.62158,    1761.8186
   3312,   17960.5215,   1522.62158,    1761.8186
   3313,   17973.0195,   1522.62158,    1761.8186
   3314,   17985.5176,   1522.62158,    1761.8186
   3315,   17998.0156,   1522.62158,    1761.8186
   3316,   18010.5156,   1522.62158,    1761.8186
   3317,   18023.0137,   1522.62158,    1761.8186
   3318,   18035.5117,   1522.62158,    1761.8186
   3319,   18048.0117,   1522.62158,    1761.8186
   3320,   18060.5098,   1522.62158,    1761.8186
   3321,   18073.0078,   1522.62158,    1761.8186
   3322,   18085.5078,   1522.62158,    1761.8186
   3323,   18098.0059,   1522.62158,    1761.8186
   3324,   18110.5039,   1522.62158,    1761.8186
   3325,    18123.002,   1522.62158,    1761.8186
   3326,    18135.502,   1522.62158,    1761.8186
   3327,   16923.1348,   1522.62158,    1761.8186
   3328,   16935.6328,   1522.62158,    1761.8186
   3329,   16948.1328,   1522.62158,    1761.8186
   3330,   16960.6309,   1522.62158,    1761.8186
   3331,   16973.1289,   1522.62158,    1761.8186
   3332,   16985.6289,   1522.62158,    1761.8186
   3333,    16998.127,   1522.62158,    1761.8186
   3334,    17010.625,   1522.62158,    1761.8186
   3335,    17023.123,   1522.62158,    1761.8186
   3336,    17035.623,   1522.62158,    1761.8186
   3337,   17048.1211,   1522.62158,    1761.8186
   3338,   17060.6191,   1522.62158,    1761.8186
   3339,   17073.1191,   1522.62158,    1761.8186
   3340,   17085.6172,   1522.62158,    1761.8186
   3341,   17098.1152,   1522.62158,    1761.8186
   3342,   17110.6152,   1522.62158,    1761.8186
   3343,   17123.1133,   1522.62158,    1761.8186
   3344,   17135.6113,   1522.62158,    1761.8186
   3345,   17148.1094,   1522.62158,    1761.8186
   3346,   17160.6094,   1522.62158,    1761.8186
   3347,   17173.1074,   1522.62158,    1761.8186
   3348,   17185.6055,   1522.62158,    1761.8186
   3349,   17198.1055,   1522.62158,    1761.8186
   3350,   17210.6035,   1522.62158,    1761.8186
   3351,   17223.1016,   1522.62158,    1761.8186
   3352,   17235.5996,   1522.62158,    1761.8186
   3353,   17248.0996,   1522.62158,    1761.8186
   3354,   17260.5977,   1522.62158,    1761.8186
   3355,   17273.0957,   1522.62158,    1761.8186
   3356,   17285.5957,   1522.62158,    1761.8186
   3357,   17298.0938,   1522.62158,    1761.8186
   3358,   17310.5918,   1522.62158,    1761.8186
   3359,   17323.0918,   1522.62158,    1761.8186
   3360,   17335.5898,   1522.62158,    1761.8186
   3361,   17348.0879,   1522.62158,    1761.8186
   3362,   17360.5859,   1522.62158,    1761.8186
   3363,   17373.0859,   1522.62158,    1761.8186
   3364,    17385.584,   1522.62158,    1761.8186
   3365,    17398.082,   1522.62158,    1761.8186
   3366,    17410.582,   1522.62158,    1761.8186
   3367,   17423.0801,   1522.62158,    1761.8186
   3368,   17435.5781,   1522.62158,    1761.8186
   3369,   17448.0762,   1522.62158,    1761.8186
   3370,   17460.5762,   1522.62158,    1761.8186
   3371,   17473.0742,   1522.62158,    1761.8186
   3372,   17485.5723,   1522.62158,    1761.8186
   3373,   17498.0723,   1522.62158,    1761.8186
   3374,   17510.5703,   1522.62158,    1761.8186
   3375,   17523.0684,   1522.62158,    1761.8186
   3376,   17535.5684,   1522.62158,    1761.8186
   3377,   17548.0664,   1522.62158,    1761.8186
   3378,   17560.5645,   1522.62158,    1761.8186
   3379,   17573.0625,   1522.62158,    1761.8186
   3380,   17585.5625,   1522.62158,    1761.8186
   3381,   17598.0605,   1522.62158,    1761.8186
   3382,   17610.5586,   1522.62158,    1761.8186
   3383,   17623.0586,   1522.62158,    1761.8186
   3384,   17635.5566,   1522.62158,    1761.8186
   3385,   17648.0547,   1522.62158,    1761.8186
   3386,   17660.5547,   1522.62158,    1761.8186
   3387,   17673.0527,   1522.62158,    1761.8186
   3388,   17685.5508,   1522.62158,    1761.8186
   3389,   17698.0488,   1522.62158,    1761.8186
   3390,   17710.5488,   1522.62158,    1761.8186
   3391,   17723.0469,   1522.62158,    1761.8186
   3392,   16098.2256,   1522.62158,    1761.8186
   3393,   16110.7246,   1522.62158,    1761.8186
   3394,   16123.2227,   1522.62158,    1761.8186
   3395,   16135.7217,   1522.62158,    1761.8186
   3396,   16148.2207,   1522.62158,    1761.8186
   3397,   16160.7188,   1522.62158,    1761.8186
   3398,   16173.2178,   1522.62158,    1761.8186
   3399,   16185.7158,   1522.62158,    1761.8186
   3400,   16198.2148,   1522.62158,    1761.8186
   3401,   16210.7139,   1522.62158,    1761.8186
   3402,   16223.2119,   1522.62158,    1761.8186
   3403,   16235.7109,   1522.62158,    1761.8186
   3404,    16248.209,   1522.62158,    1761.8186
   3405,    16260.708,   1522.62158,    1761.8186
   3406,    16273.207,   1522.62158,    1761.8186
   3407,   16285.7051,   1522.62158,    1761.8186
   3408,   16298.2041,   1522.62158,    1761.8186
   3409,   16310.7021,   1522.62158,    1761.8186
   3410,   16323.2012,   1522.62158,    1761.8186
   3411,   16335.7002,   1522.62158,    1761.8186
   3412,   16348.1982,   1522.62158,    1761.8186
   3413,   16360.6973,   1522.62158,    1761.8186
   3414,   16373.1953,   1522.62158,    1761.8186
   3415,   16385.6934,   1522.62158,    1761.8186
   3416,   16398.1934,   1522.62158,    1761.8186
   3417,   16410.6914,   1522.62158,    1761.8186
   3418,   16423.1895,   1522.62158,    1761.8186
   3419,   16435.6895,   1522.62158,    1761.8186
   3420,   16448.1875,   1522.62158,    1761.8186
   3421,   16460.6855,   1522.62158,    1761.8186
   3422,   16473.1855,   1522.62158,    1761.8186
   3423,   16485.6836,   1522.62158,    1761.8186
   3424,   16498.1816,   1522.62158,    1761.8186
   3425,   16510.6797,   1522.62158,    1761.8186
   3426,   16523.1797,   1522.62158,    1761.8186
   3427,   16535.6777,   1522.62158,    1761.8186
   3428,   16548.1758,   1522.62158,    1761.8186
   3429,   16560.6758,   1522.62158,    1761.8186
   3430,   16573.1738,   1522.62158,    1761.8186
   3431,   16585.6719,   1522.62158,    1761.8186
   3432,   16598.1699,   1522.62158,    1761.8186
   3433,   16610.6699,   1522.62158,    1761.8186
   3434,    16623.168,   1522.62158,    1761.8186
   3435,    16635.666,   1522.62158,    1761.8186
   3436,    16648.166,   1522.62158,    1761.8186
   3437,   16660.6641,   1522.62158,    1761.8186
   3438,   16673.1621,   1522.62158,    1761.8186
   3439,   16685.6621,   1522.62158,    1761.8186
   3440,   16698.1602,   1522.62158,    1761.8186
   3441,   16710.6582,   1522.62158,    1761.8186
   3442,   16723.1562,   1522.62158,    1761.8186
   3443,   16735.6562,   1522.62158,    1761.8186
   3444,   16748.1543,   1522.62158,    1761.8186
   3445,   16760.6523,   1522.62158,    1761.8186
   3446,   16773.1523,   1522.62158,    1761.8186
   3447,   16785.6504,   1522.62158,    1761.8186
   3448,   16798.1484,   1522.62158,    1761.8186
   3449,   16810.6465,   1522.62158,    1761.8186
   3450,   16823.1465,   1522.62158,    1761.8186
   3451,   16835.6445,   1522.62158,    1761.8186
   3452,   16848.1426,   1522.62158,    1761.8186
   3453,   16860.6426,   1522.62158,    1761.8186
   3454,   16873.1406,   1522.62158,    1761.8186
   3455,   16885.6387,   1522.62158,    1761.8186
   3456,   16898.1387,   1522.62158,    1761.8186
   3457,   15273.3164,   1522.62158,    1761.8186
   3458,   15285.8154,   1522.62158,    1761.8186
   3459,   15298.3145,   1522.62158,    1761.8186
   3460,   15310.8125,   1522.62158,    1761.8186
   3461,   15323.3115,   1522.62158,    1761.8186
   3462,   15335.8096,   1522.62158,    1761.8186
   3463,   15348.3086,   1522.62158,    1761.8186
   3464,   15360.8076,   1522.62158,    1761.8186
   3465,   15373.3057,   1522.62158,    1761.8186
   3466,   15385.8047,   1522.62158,    1761.8186
   3467,   15398.3027,   1522.62158,    1761.8186
   3468,   15410.8018,   1522.62158,    1761.8186
   3469,   15423.2998,   1522.62158,    1761.8186
   3470,   15435.7988,   1522.62158,    1761.8186
   3471,   15448.2979,   1522.62158,    1761.8186
   3472,   15460.7959,   1522.62158,    1761.8186
   3473,   15473.2949,   1522.62158,    1761.8186
   3474,    15485.793,   1522.62158,    1761.8186
   3475,    15498.292,   1522.62158,    1761.8186
   3476,    15510.791,   1522.62158,    1761.8186
   3477,   15523.2891,   1522.62158,    1761.8186
   3478,   15535.7881,   1522.62158,    1761.8186
   3479,   15548.2861,   1522.62158,    1761.8186
   3480,   15560.7852,   1522.62158,    1761.8186
   3481,   15573.2842,   1522.62158,    1761.8186
   3482,   15585.7822,   1522.62158,    1761.8186
   3483,   15598.2812,   1522.62158,    1761.8186
   3484,   15610.7793,   1522.62158,    1761.8186
   3485,   15623.2783,   1522.62158,    1761.8186
   3486,   15635.7773,   1522.62158,    1761.8186
   3487,   15648.2754,   1522.62158,    1761.8186
   3488,   15660.7744,   1522.62158,    1761.8186
   3489,   15673.2725,   1522.62158,    1761.8186
   3490,   15685.7715,   1522.62158,    1761.8186
   3491,   15698.2695,   1522.62158,    1761.8186
   3492,   15710.7686,   1522.62158,    1761.8186
   3493,   15723.2676,   1522.62158,    1761.8186
   3494,   15735.7656,   1522.62158,    1761.8186
   3495,   15748.2646,   1522.62158,    1761.8186
   3496,   15760.7627,   1522.62158,    1761.8186
   3497,   15773.2617,   1522.62158,    1761.8186
   3498,   15785.7607,   1522.62158,    1761.8186
   3499,   15798.2588,   1522.62158,    1761.8186
   3500,   15810.7578,   1522.62158,    1761.8186
   3501,   15823.2559,   1522.62158,    1761.8186
   3502,   15835.7549,   1522.62158,    1761.8186
   3503,   15848.2539,   1522.62158,    1761.8186
   3504,    15860.752,   1522.62158,    1761.8186
   3505,    15873.251,   1522.62158,    1761.8186
   3506,    15885.749,   1522.62158,    1761.8186
   3507,    15898.248,   1522.62158,    1761.8186
   3508,   15910.7461,   1522.62158,    1761.8186
   3509,   15923.2451,   1522.62158,    1761.8186
   3510,   15935.7441,   1522.62158,    1761.8186
   3511,   15948.2422,   1522.62158,    1761.8186
   3512,   15960.7412,   1522.62158,    1761.8186
   3513,   15973.2393,   1522.62158,    1761.8186
   3514,   15985.7383,   1522.62158,    1761.8186
   3515,   15998.2373,   1522.62158,    1761.8186
   3516,   16010.7354,   1522.62158,    1761.8186
   3517,   16023.2344,   1522.62158,    1761.8186
   3518,   16035.7324,   1522.62158,    1761.8186
   3519,   16048.2314,   1522.62158,    1761.8186
   3520,   16060.7305,   1522.62158,    1761.8186
   3521,   16073.2285,   1522.62158,    1761.8186
   3522,   14448.4072,   1522.62158,    1761.8186
   3523,   14460.9062,   1522.62158,    1761.8186
   3524,   14473.4053,   1522.62158,    1761.8186
   3525,   14485.9033,   1522.62158,    1761.8186
   3526,   14498.4023,   1522.62158,    1761.8186
   3527,   14510.9004,   1522.62158,    1761.8186
   3528,   14523.3994,   1522.62158,    1761.8186
   3529,   14535.8984,   1522.62158,    1761.8186
   3530,   14548.3965,   1522.62158,    1761.8186
   3531,   14560.8955,   1522.62158,    1761.8186
   3532,   14573.3936,   1522.62158,    1761.8186
   3533,   14585.8926,   1522.62158,    1761.8186
   3534,   14598.3916,   1522.62158,    1761.8186
   3535,   14610.8896,   1522.62158,    1761.8186
   3536,   14623.3887,   1522.62158,    1761.8186
   3537,   14635.8867,   1522.62158,    1761.8186
   3538,   14648.3857,   1522.62158,    1761.8186
   3539,   14660.8848,   1522.62158,    1761.8186
   3540,   14673.3828,   1522.62158,    1761.8186
   3541,   14685.8818,   1522.62158,    1761.8186
   3542,   14698.3799,   1522.62158,    1761.8186
   3543,   14710.8789,   1522.62158,    1761.8186
   3544,    14723.377,   1522.62158,    1761.8186
   3545,    14735.876,   1522.62158,    1761.8186
   3546,    14748.375,   1522.62158,    1761.8186
   3547,    14760.873,   1522.62158,    1761.8186
   3548,   14773.3721,   1522.62158,    1761.8186
   3549,   14785.8701,   1522.62158,    1761.8186
   3550,   14798.3691,   1522.62158,    1761.8186
   3551,   14810.8682,   1522.62158,    1761.8186
   3552,   14823.3662,   1522.62158,    1761.8186
   3553,   14835.8652,   1522.62158,    1761.8186
   3554,   14848.3633,   1522.62158,    1761.8186
   3555,   14860.8623,   1522.62158,    1761.8186
   3556,   14873.3613,   1522.62158,    1761.8186
   3557,   14885.8594,   1522.62158,    1761.8186
   3558,   14898.3584,   1522.62158,    1761.8186
   3559,   14910.8564,   1522.62158,    1761.8186
   3560,   14923.3555,   1522.62158,    1761.8186
   3561,   14935.8535,   1522.62158,    1761.8186
   3562,   14948.3525,   1522.62158,    1761.8186
   3563,   14960.8516,   1522.62158,    1761.8186
   3564,   14973.3496,   1522.62158,    1761.8186
   3565,   14985.8486,   1522.62158,    1761.8186
   3566,   14998.3467,   1522.62158,    1761.8186
   3567,   15010.8457,   1522.62158,    1761.8186
   3568,   15023.3447,   1522.62158,    1761.8186
   3569,   15035.8428,   1522.62158,    1761.8186
   3570,   15048.3418,   1522.62158,    1761.8186
   3571,   15060.8398,   1522.62158,    1761.8186
   3572,   15073.3389,   1522.62158,    1761.8186
   3573,   15085.8379,   1522.62158,    1761.8186
   3574,   15098.3359,   1522.62158,    1761.8186
   3575,    15110.835,   1522.62158,    1761.8186
   3576,    15123.333,   1522.62158,    1761.8186
   3577,    15135.832,   1522.62158,    1761.8186
   3578,   15148.3311,   1522.62158,    1761.8186
   3579,   15160.8291,   1522.62158,    1761.8186
   3580,   15173.3281,   1522.62158,    1761.8186
   3581,   15185.8262,   1522.62158,    1761.8186
   3582,   15198.3252,   1522.62158,    1761.8186
   3583,   15210.8232,   1522.62158,    1761.8186
   3584,   15223.3223,   1522.62158,    1761.8186
   3585,   15235.8213,   1522.62158,    1761.8186
   3586,   15248.3193,   1522.62158,    1761.8186
   3587,    13623.499,   1522.62158,    1761.8186
   3588,   13635.9971,   1522.62158,    1761.8186
   3589,   13648.4961,   1522.62158,    1761.8186
   3590,   13660.9941,   1522.62158,    1761.8186
   3591,   13673.4932,   1522.62158,    1761.8186
   3592,   13685.9922,   1522.62158,    1761.8186
   3593,   13698.4902,   1522.62158,    1761.8186
   3594,   13710.9893,   1522.62158,    1761.8186
   3595,   13723.4873,   1522.62158,    1761.8186
   3596,   13735.9863,   1522.62158,    1761.8186
   3597,   13748.4844,   1522.62158,    1761.8186
   3598,   13760.9834,   1522.62158,    1761.8186
   3599,   13773.4824,   1522.62158,    1761.8186
   3600,   13785.9805,   1522.62158,    1761.8186
   3601,   13798.4795,   1522.62158,    1761.8186
   3602,   13810.9775,   1522.62158,    1761.8186
   3603,   13823.4766,   1522.62158,    1761.8186
   3604,   13835.9756,   1522.62158,    1761.8186
   3605,   13848.4736,   1522.62158,    1761.8186
   3606,   13860.9727,   1522.62158,    1761.8186
   3607,   13873.4707,   1522.62158,    1761.8186
   3608,   13885.9697,   1522.62158,    1761.8186
   3609,   13898.4688,   1522.62158,    1761.8186
   3610,   13910.9668,   1522.62158,    1761.8186
   3611,   13923.4658,   1522.62158,    1761.8186
   3612,   13935.9639,   1522.62158,    1761.8186
   3613,   13948.4629,   1522.62158,    1761.8186
   3614,   13960.9619,   1522.62158,    1761.8186
   3615,     13973.46,   1522.62158,    1761.8186
   3616,    13985.959,   1522.62158,    1761.8186
   3617,    13998.457,   1522.62158,    1761.8186
   3618,   14010.9561,   1522.62158,    1761.8186
   3619,   14023.4541,   1522.62158,    1761.8186
   3620,   14035.9531,   1522.62158,    1761.8186
   3621,   14048.4521,   1522.62158,    1761.8186
   3622,   14060.9502,   1522.62158,    1761.8186
   3623,   14073.4492,   1522.62158,    1761.8186
   3624,   14085.9473,   1522.62158,    1761.8186
   3625,   14098.4463,   1522.62158,    1761.8186
   3626,   14110.9453,   1522.62158,    1761.8186
   3627,   14123.4434,   1522.62158,    1761.8186
   3628,   14135.9424,   1522.62158,    1761.8186
   3629,   14148.4404,   1522.62158,    1761.8186
   3630,   14160.9395,   1522.62158,    1761.8186
   3631,   14173.4385,   1522.62158,    1761.8186
   3632,   14185.9365,   1522.62158,    1761.8186
   3633,   14198.4355,   1522.62158,    1761.8186
   3634,   14210.9336,   1522.62158,    1761.8186
   3635,   14223.4326,   1522.62158,    1761.8186
   3636,   14235.9307,   1522.62158,    1761.8186
   3637,   14248.4297,   1522.62158,    1761.8186
   3638,   14260.9287,   1522.62158,    1761.8186
   3639,   14273.4268,   1522.62158,    1761.8186
   3640,   14285.9258,   1522.62158,    1761.8186
   3641,   14298.4238,   1522.62158,    1761.8186
   3642,   14310.9229,   1522.62158,    1761.8186
   3643,   14323.4219,   1522.62158,    1761.8186
   3644,   14335.9199,   1522.62158,    1761.8186
   3645,   14348.4189,   1522.62158,    1761.8186
   3646,    14360.917,   1522.62158,    1761.8186
   3647,    14373.416,   1522.62158,    1761.8186
   3648,    14385.915,   1522.62158,    1761.8186
   3649,   14398.4131,   1522.62158,    1761.8186
   3650,   14410.9121,   1522.62158,    1761.8186
   3651,   14423.4102,   1522.62158,    1761.8186
   3652,   12798.5898,   1522.62158,    1761.8186
   3653,   12811.0879,   1522.62158,    1761.8186
   3654,   12823.5869,   1522.62158,    1761.8186
   3655,    12836.085,   1522.62158,    1761.8186
   3656,    12848.584,   1522.62158,    1761.8186
   3657,    12861.083,   1522.62158,    1761.8186
   3658,   12873.5811,   1522.62158,    1761.8186
   3659,   12886.0801,   1522.62158,    1761.8186
   3660,   12898.5781,   1522.62158,    1761.8186
   3661,   12911.0771,   1522.62158,    1761.8186
   3662,   12923.5762,   1522.62158,    1761.8186
   3663,   12936.0742,   1522.62158,    1761.8186
   3664,   12948.5732,   1522.62158,    1761.8186
   3665,   12961.0713,   1522.62158,    1761.8186
   3666,   12973.5703,   1522.62158,    1761.8186
   3667,   12986.0693,   1522.62158,    1761.8186
   3668,   12998.5674,   1522.62158,    1761.8186
   3669,   13011.0664,   1522.62158,    1761.8186
   3670,   13023.5645,   1522.62158,    1761.8186
   3671,   13036.0635,   1522.62158,    1761.8186
   3672,   13048.5615,   1522.62158,    1761.8186
   3673,   13061.0605,   1522.62158,    1761.8186
   3674,   13073.5596,   1522.62158,    1761.8186
   3675,   13086.0576,   1522.62158,    1761.8186
   3676,   13098.5566,   1522.62158,    1761.8186
   3677,   13111.0547,   1522.62158,    1761.8186
   3678,   13123.5537,   1522.62158,    1761.8186
   3679,   13136.0527,   1522.62158,    1761.8186
   3680,   13148.5508,   1522.62158,    1761.8186
   3681,   13161.0498,   1522.62158,    1761.8186
   3682,   13173.5479,   1522.62158,    1761.8186
   3683,   13186.0469,   1522.62158,    1761.8186
   3684,   13198.5459,   1522.62158,    1761.8186
   3685,   13211.0439,   1522.62158,    1761.8186
   3686,    13223.543,   1522.62158,    1761.8186
   3687,    13236.041,   1522.62158,    1761.8186
   3688,     13248.54,   1522.62158,    1761.8186
   3689,   13261.0381,   1522.62158,    1761.8186
   3690,   13273.5371,   1522.62158,    1761.8186
   3691,   13286.0361,   1522.62158,    1761.8186
   3692,   13298.5342,   1522.62158,    1761.8186
   3693,   13311.0332,   1522.62158,    1761.8186
   3694,   13323.5312,   1522.62158,    1761.8186
   3695,   13336.0303,   1522.62158,    1761.8186
   3696,   13348.5293,   1522.62158,    1761.8186
   3697,   13361.0273,   1522.62158,    1761.8186
   3698,   13373.5264,   1522.62158,    1761.8186
   3699,   13386.0244,   1522.62158,    1761.8186
   3700,   13398.5234,   1522.62158,    1761.8186
   3701,   13411.0225,   1522.62158,    1761.8186
   3702,   13423.5205,   1522.62158,    1761.8186
   3703,   13436.0195,   1522.62158,    1761.8186
   3704,   13448.5176,   1522.62158,    1761.8186
   3705,   13461.0166,   1522.62158,    1761.8186
   3706,   13473.5156,   1522.62158,    1761.8186
   3707,   13486.0137,   1522.62158,    1761.8186
   3708,   13498.5127,   1522.62158,    1761.8186
   3709,   13511.0107,   1522.62158,    1761.8186
   3710,   13523.5098,   1522.62158,    1761.8186
   3711,   13536.0078,   1522.62158,    1761.8186
   3712,   13548.5068,   1522.62158,    1761.8186
   3713,   13561.0059,   1522.62158,    1761.8186
   3714,   13573.5039,   1522.62158,    1761.8186
   3715,   13586.0029,   1522.62158,    1761.8186
   3716,    13598.501,   1522.62158,    1761.8186
   3717,   11973.6807,   1522.62158,    1761.8186
   3718,   11986.1787,   1522.62158,    1761.8186
   3719,   11998.6777,   1522.62158,    1761.8186
   3720,   12011.1768,   1522.62158,    1761.8186
   3721,   12023.6748,   1522.62158,    1761.8186
   3722,   12036.1738,   1522.62158,    1761.8186
   3723,   12048.6719,   1522.62158,    1761.8186
   3724,   12061.1709,   1522.62158,    1761.8186
   3725,   12073.6689,   1522.62158,    1761.8186
   3726,    12086.168,   1522.62158,    1761.8186
   3727,    12098.667,   1522.62158,    1761.8186
   3728,    12111.165,   1522.62158,    1761.8186
   3729,   12123.6641,   1522.62158,    1761.8186
   3730,   12136.1621,   1522.62158,    1761.8186
   3731,   12148.6611,   1522.62158,    1761.8186
   3732,   12161.1602,   1522.62158,    1761.8186
   3733,   12173.6582,   1522.62158,    1761.8186
   3734,   12186.1572,   1522.62158,    1761.8186
   3735,   12198.6553,   1522.62158,    1761.8186
   3736,   12211.1543,   1522.62158,    1761.8186
   3737,   12223.6533,   1522.62158,    1761.8186
   3738,   12236.1514,   1522.62158,    1761.8186
   3739,   12248.6504,   1522.62158,    1761.8186
   3740,   12261.1484,   1522.62158,    1761.8186
   3741,   12273.6475,   1522.62158,    1761.8186
   3742,   12286.1465,   1522.62158,    1761.8186
   3743,   12298.6445,   1522.62158,    1761.8186
   3744,   12311.1436,   1522.62158,    1761.8186
   3745,   12323.6416,   1522.62158,    1761.8186
   3746,   12336.1406,   1522.62158,    1761.8186
   3747,   12348.6387,   1522.62158,    1761.8186
   3748,   12361.1377,   1522.62158,    1761.8186
   3749,   12373.6367,   1522.62158,    1761.8186
   3750,   12386.1348,   1522.62158,    1761.8186
   3751,   12398.6338,   1522.62158,    1761.8186
   3752,   12411.1318,   1522.62158,    1761.8186
   3753,   12423.6309,   1522.62158,    1761.8186
   3754,   12436.1299,   1522.62158,    1761.8186
   3755,   12448.6279,   1522.62158,    1761.8186
   3756,    12461.127,   1522.62158,    1761.8186
   3757,    12473.625,   1522.62158,    1761.8186
   3758,    12486.124,   1522.62158,    1761.8186
   3759,    12498.623,   1522.62158,    1761.8186
   3760,   12511.1211,   1522.62158,    1761.8186
   3761,   12523.6201,   1522.62158,    1761.8186
   3762,   12536.1182,   1522.62158,    1761.8186
   3763,   12548.6172,   1522.62158,    1761.8186
   3764,   12561.1152,   1522.62158,    1761.8186
   3765,   12573.6143,   1522.62158,    1761.8186
   3766,   12586.1133,   1522.62158,    1761.8186
   3767,   12598.6113,   1522.62158,    1761.8186
   3768,   12611.1104,   1522.62158,    1761.8186
   3769,   12623.6084,   1522.62158,    1761.8186
   3770,   12636.1074,   1522.62158,    1761.8186
   3771,   12648.6064,   1522.62158,    1761.8186
   3772,   12661.1045,   1522.62158,    1761.8186
   3773,   12673.6035,   1522.62158,    1761.8186
   3774,   12686.1016,   1522.62158,    1761.8186
   3775,   12698.6006,   1522.62158,    1761.8186
   3776,   12711.0996,   1522.62158,    1761.8186
   3777,   12723.5977,   1522.62158,    1761.8186
   3778,   12736.0967,   1522.62158,    1761.8186
   3779,   12748.5947,   1522.62158,    1761.8186
   3780,   12761.0938,   1522.62158,    1761.8186
   3781,   12773.5928,   1522.62158,    1761.8186
   3782,   11148.7715,   1522.62158,    1761.8186
   3783,   11161.2695,   1522.62158,    1761.8186
   3784,   11173.7686,   1522.62158,    1761.8186
   3785,   11186.2676,   1522.62158,    1761.8186
   3786,   11198.7656,   1522.62158,    1761.8186
   3787,   11211.2646,   1522.62158,    1761.8186
   3788,   11223.7627,   1522.62158,    1761.8186
   3789,   11236.2617,   1522.62158,    1761.8186
   3790,   11248.7607,   1522.62158,    1761.8186
   3791,   11261.2588,   1522.62158,    1761.8186
   3792,   11273.7578,   1522.62158,    1761.8186
   3793,   11286.2559,   1522.62158,    1761.8186
   3794,   11298.7549,   1522.62158,    1761.8186
   3795,   11311.2539,   1522.62158,    1761.8186
   3796,    11323.752,   1522.62158,    1761.8186
   3797,    11336.251,   1522.62158,    1761.8186
   3798,    11348.749,   1522.62158,    1761.8186
   3799,    11361.248,   1522.62158,    1761.8186
   3800,   11373.7461,   1522.62158,    1761.8186
   3801,   11386.2451,   1522.62158,    1761.8186
   3802,   11398.7441,   1522.62158,    1761.8186
   3803,   11411.2422,   1522.62158,    1761.8186
   3804,   11423.7412,   1522.62158,    1761.8186
   3805,   11436.2393,   1522.62158,    1761.8186
   3806,   11448.7383,   1522.62158,    1761.8186
   3807,   11461.2373,   1522.62158,    1761.8186
   3808,   11473.7354,   1522.62158,    1761.8186
   3809,   11486.2344,   1522.62158,    1761.8186
   3810,   11498.7324,   1522.62158,    1761.8186
   3811,   11511.2314,   1522.62158,    1761.8186
   3812,   11523.7305,   1522.62158,    1761.8186
   3813,   11536.2285,   1522.62158,    1761.8186
   3814,   11548.7275,   1522.62158,    1761.8186
   3815,   11561.2256,   1522.62158,    1761.8186
   3816,   11573.7246,   1522.62158,    1761.8186
   3817,   11586.2227,   1522.62158,    1761.8186
   3818,   11598.7217,   1522.62158,    1761.8186
   3819,   11611.2207,   1522.62158,    1761.8186
   3820,   11623.7188,   1522.62158,    1761.8186
   3821,   11636.2178,   1522.62158,    1761.8186
   3822,   11648.7158,   1522.62158,    1761.8186
   3823,   11661.2148,   1522.62158,    1761.8186
   3824,   11673.7139,   1522.62158,    1761.8186
   3825,   11686.2119,   1522.62158,    1761.8186
   3826,   11698.7109,   1522.62158,    1761.8186
   3827,    11711.209,   1522.62158,    1761.8186
   3828,    11723.708,   1522.62158,    1761.8186
   3829,    11736.207,   1522.62158,    1761.8186
   3830,   11748.7051,   1522.62158,    1761.8186
   3831,   11761.2041,   1522.62158,    1761.8186
   3832,   11773.7021,   1522.62158,    1761.8186
   3833,   11786.2012,   1522.62158,    1761.8186
   3834,   11798.7002,   1522.62158,    1761.8186
   3835,   11811.1982,   1522.62158,    1761.8186
   3836,   11823.6973,   1522.62158,    1761.8186
   3837,   11836.1953,   1522.62158,    1761.8186
   3838,   11848.6943,   1522.62158,    1761.8186
   3839,   11861.1924,   1522.62158,    1761.8186
   3840,   11873.6914,   1522.62158,    1761.8186
   3841,   11886.1904,   1522.62158,    1761.8186
   3842,   11898.6885,   1522.62158,    1761.8186
   3843,   11911.1875,   1522.62158,    1761.8186
   3844,   11923.6855,   1522.62158,    1761.8186
   3845,   11936.1846,   1522.62158,    1761.8186
   3846,   11948.6836,   1522.62158,    1761.8186
   3847,   10323.8623,   1522.62158,    1761.8186
   3848,   10336.3613,   1522.62158,    1761.8186
   3849,   10348.8594,   1522.62158,    1761.8186
   3850,   10361.3584,   1522.62158,    1761.8186
   3851,   10373.8564,   1522.62158,    1761.8186
   3852,   10386.3555,   1522.62158,    1761.8186
   3853,   10398.8535,   1522.62158,    1761.8186
   3854,   10411.3525,   1522.62158,    1761.8186
   3855,   10423.8516,   1522.62158,    1761.8186
   3856,   10436.3496,   1522.62158,    1761.8186
   3857,   10448.8486,   1522.62158,    1761.8186
   3858,   10461.3467,   1522.62158,    1761.8186
   3859,   10473.8457,   1522.62158,    1761.8186
   3860,   10486.3447,   1522.62158,    1761.8186
   3861,   10498.8428,   1522.62158,    1761.8186
   3862,   10511.3418,   1522.62158,    1761.8186
   3863,   10523.8398,   1522.62158,    1761.8186
   3864,   10536.3389,   1522.62158,    1761.8186
   3865,   10548.8379,   1522.62158,    1761.8186
   3866,   10561.3359,   1522.62158,    1761.8186
   3867,    10573.835,   1522.62158,    1761.8186
   3868,    10586.333,   1522.62158,    1761.8186
   3869,    10598.832,   1522.62158,    1761.8186
   3870,   10611.3311,   1522.62158,    1761.8186
   3871,   10623.8291,   1522.62158,    1761.8186
   3872,   10636.3281,   1522.62158,    1761.8186
   3873,   10648.8262,   1522.62158,    1761.8186
   3874,   10661.3252,   1522.62158,    1761.8186
   3875,   10673.8232,   1522.62158,    1761.8186
   3876,   10686.3223,   1522.62158,    1761.8186
   3877,   10698.8213,   1522.62158,    1761.8186
   3878,   10711.3193,   1522.62158,    1761.8186
   3879,   10723.8184,   1522.62158,    1761.8186
   3880,   10736.3164,   1522.62158,    1761.8186
   3881,   10748.8154,   1522.62158,    1761.8186
   3882,   10761.3145,   1522.62158,    1761.8186
   3883,   10773.8125,   1522.62158,    1761.8186
   3884,   10786.3115,   1522.62158,    1761.8186
   3885,   10798.8096,   1522.62158,    1761.8186
   3886,   10811.3086,   1522.62158,    1761.8186
   3887,   10823.8076,   1522.62158,    1761.8186
   3888,   10836.3057,   1522.62158,    1761.8186
   3889,   10848.8047,   1522.62158,    1761.8186
   3890,   10861.3027,   1522.62158,    1761.8186
   3891,   10873.8018,   1522.62158,    1761.8186
   3892,   10886.2998,   1522.62158,    1761.8186
   3893,   10898.7988,   1522.62158,    1761.8186
   3894,   10911.2979,   1522.62158,    1761.8186
   3895,   10923.7959,   1522.62158,    1761.8186
   3896,   10936.2949,   1522.62158,    1761.8186
   3897,    10948.793,   1522.62158,    1761.8186
   3898,    10961.292,   1522.62158,    1761.8186
   3899,    10973.791,   1522.62158,    1761.8186
   3900,   10986.2891,   1522.62158,    1761.8186
   3901,   10998.7881,   1522.62158,    1761.8186
   3902,   11011.2861,   1522.62158,    1761.8186
   3903,   11023.7852,   1522.62158,    1761.8186
   3904,   11036.2842,   1522.62158,    1761.8186
   3905,   11048.7822,   1522.62158,    1761.8186
   3906,   11061.2812,   1522.62158,    1761.8186
   3907,   11073.7793,   1522.62158,    1761.8186
   3908,   11086.2783,   1522.62158,    1761.8186
   3909,   11098.7773,   1522.62158,    1761.8186
   3910,   11111.2754,   1522.62158,    1761.8186
   3911,   11123.7744,   1522.62158,    1761.8186
   3912,   9498.95312,   1522.62158,    1761.8186
   3913,   9511.45215,   1522.62158,    1761.8186
   3914,    9523.9502,   1522.62158,    1761.8186
   3915,   9536.44922,   1522.62158,    1761.8186
   3916,   9548.94727,   1522.62158,    1761.8186
   3917,   9561.44629,   1522.62158,    1761.8186
   3918,   9573.94531,   1522.62158,    1761.8186
   3919,   9586.44336,   1522.62158,    1761.8186
   3920,   9598.94238,   1522.62158,    1761.8186
   3921,   9611.44043,   1522.62158,    1761.8186
   3922,   9623.93945,   1522.62158,    1761.8186
   3923,   9636.43848,   1522.62158,    1761.8186
   3924,   9648.93652,   1522.62158,    1761.8186
   3925,   9661.43555,   1522.62158,    1761.8186
   3926,   9673.93359,   1522.62158,    1761.8186
   3927,   9686.43262,   1522.62158,    1761.8186
   3928,   9698.93066,   1522.62158,    1761.8186
   3929,   9711.42969,   1522.62158,    1761.8186
   3930,   9723.92871,   1522.62158,    1761.8186
   3931,   9736.42676,   1522.62158,    1761.8186
   3932,   9748.92578,   1522.62158,    1761.8186
   3933,   9761.42383,   1522.62158,    1761.8186
   3934,   9773.92285,   1522.62158,    1761.8186
   3935,   9786.42188,   1522.62158,    1761.8186
   3936,   9798.91992,   1522.62158,    1761.8186
   3937,   9811.41895,   1522.62158,    1761.8186
   3938,   9823.91699,   1522.62158,    1761.8186
   3939,   9836.41602,   1522.62158,    1761.8186
   3940,   9848.91504,   1522.62158,    1761.8186
   3941,   9861.41309,   1522.62158,    1761.8186
   3942,   9873.91211,   1522.62158,    1761.8186
   3943,   9886.41016,   1522.62158,    1761.8186
   3944,   9898.90918,   1522.62158,    1761.8186
   3945,   9911.40723,   1522.62158,    1761.8186
   3946,   9923.90625,   1522.62158,    1761.8186
   3947,   9936.40527,   1522.62158,    1761.8186
   3948,   9948.90332,   1522.62158,    1761.8186
   3949,   9961.40234,   1522.62158,    1761.8186
   3950,   9973.90039,   1522.62158,    1761.8186
   3951,   9986.39941,   1522.62158,    1761.8186
   3952,   9998.89844,   1522.62158,    1761.8186
   3953,   10011.3965,   1522.62158,    1761.8186
   3954,   10023.8955,   1522.62158,    1761.8186
   3955,   10036.3936,   1522.62158,    1761.8186
   3956,   10048.8926,   1522.62158,    1761.8186
   3957,   10061.3916,   1522.62158,    1761.8186
   3958,   10073.8896,   1522.62158,    1761.8186
   3959,   10086.3887,   1522.62158,    1761.8186
   3960,   10098.8867,   1522.62158,    1761.8186
   3961,   10111.3857,   1522.62158,    1761.8186
   3962,   10123.8848,   1522.62158,    1761.8186
   3963,   10136.3828,   1522.62158,    1761.8186
   3964,   10148.8818,   1522.62158,    1761.8186
   3965,   10161.3799,   1522.62158,    1761.8186
   3966,   10173.8789,   1522.62158,    1761.8186
   3967,    10186.377,   1522.62158,    1761.8186
   3968,    10198.876,   1522.62158,    1761.8186
   3969,    10211.375,   1522.62158,    1761.8186
   3970,    10223.873,   1522.62158,    1761.8186
   3971,   10236.3721,   1522.62158,    1761.8186
   3972,   10248.8701,   1522.62158,    1761.8186
   3973,   10261.3691,   1522.62158,    1761.8186
   3974,   10273.8682,   1522.62158,    1761.8186
   3975,   10286.3662,   1522.62158,    1761.8186
   3976,   10298.8652,   1522.62158,    1761.8186
   3977,   9086.49902,   1522.62158,    1761.8186
   3978,   9098.99707,   1522.62158,    1761.8186
   3979,   9111.49609,   1522.62158,    1761.8186
   3980,   9123.99414,   1522.62158,    1761.8186
   3981,   9136.49316,   1522.62158,    1761.8186
   3982,   9148.99219,   1522.62158,    1761.8186
   3983,   9161.49023,   1522.62158,    1761.8186
   3984,   9173.98926,   1522.62158,    1761.8186
   3985,    9186.4873,   1522.62158,    1761.8186
   3986,   9198.98633,   1522.62158,    1761.8186
   3987,   9211.48438,   1522.62158,    1761.8186
   3988,    9223.9834,   1522.62158,    1761.8186
   3989,   9236.48242,   1522.62158,    1761.8186
   3990,   9248.98047,   1522.62158,    1761.8186
   3991,   9261.47949,   1522.62158,    1761.8186
   3992,   9273.97754,   1522.62158,    1761.8186
   3993,   9286.47656,   1522.62158,    1761.8186
   3994,   9298.97559,   1522.62158,    1761.8186
   3995,   9311.47363,   1522.62158,    1761.8186
   3996,   9323.97266,   1522.62158,    1761.8186
   3997,    9336.4707,   1522.62158,    1761.8186
   3998,   9348.96973,   1522.62158,    1761.8186
   3999,   9361.46875,   1522.62158,    1761.8186
   4000,    9373.9668,   1522.62158,    1761.8186
   4001,   9386.46582,   1522.62158,    1761.8186
   4002,   9398.96387,   1522.62158,    1761.8186
   4003,   9411.46289,   1522.62158,    1761.8186
   4004,   9423.96191,   1522.62158,    1761.8186
   4005,   9436.45996,   1522.62158,    1761.8186
   4006,   9448.95898,   1522.62158,    1761.8186
   4007,   9461.45703,   1522.62158,    1761.8186
   4008,   9473.95605,   1522.62158,    1761.8186
   4009,   8674.04395,   1522.62158,    1761.8186
   4010,   8686.54297,   1522.62158,    1761.8186
   4011,   8699.04102,   1522.62158,    1761.8186
   4012,   8711.54004,   1522.62158,    1761.8186
   4013,   8724.03809,   1522.62158,    1761.8186
   4014,   8736.53711,   1522.62158,    1761.8186
   4015,   8749.03613,   1522.62158,    1761.8186
   4016,   8761.53418,   1522.62158,    1761.8186
   4017,    8774.0332,   1522.62158,    1761.8186
   4018,   8786.53125,   1522.62158,    1761.8186
   4019,   8799.03027,   1522.62158,    1761.8186
   4020,    8811.5293,   1522.62158,    1761.8186
   4021,   8824.02734,   1522.62158,    1761.8186
   4022,   8836.52637,   1522.62158,    1761.8186
   4023,   8849.02441,   1522.62158,    1761.8186
   4024,   8861.52344,   1522.62158,    1761.8186
   4025,   8874.02246,   1522.62158,    1761.8186
   4026,   8886.52051,   1522.62158,    1761.8186
   4027,   8899.01953,   1522.62158,    1761.8186
   4028,   8911.51758,   1522.62158,    1761.8186
   4029,    8924.0166,   1522.62158,    1761.8186
   4030,   8936.51562,   1522.62158,    1761.8186
   4031,   8949.01367,   1522.62158,    1761.8186
   4032,    8961.5127,   1522.62158,    1761.8186
   4033,   8974.01074,   1522.62158,    1761.8186
   4034,   8986.50977,   1522.62158,    1761.8186
   4035,   8999.00781,   1522.62158,    1761.8186
   4036,   9011.50684,   1522.62158,    1761.8186
   4037,   9024.00586,   1522.62158,    1761.8186
   4038,   9036.50391,   1522.62158,    1761.8186
   4039,   9049.00293,   1522.62158,    1761.8186
   4040,   9061.50098,   1522.62158,    1761.8186
   4041,   7849.13477,   1522.62158,    1761.8186
   4042,   7861.63379,   1522.62158,    1761.8186
   4043,   7874.13232,   1522.62158,    1761.8186
   4044,   7886.63086,   1522.62158,    1761.8186
   4045,   7899.12939,   1522.62158,    1761.8186
   4046,   7911.62793,   1522.62158,    1761.8186
   4047,   7924.12695,   1522.62158,    1761.8186
   4048,   7936.62549,   1522.62158,    1761.8186
   4049,   7949.12402,   1522.62158,    1761.8186
   4050,   7961.62256,   1522.62158,    1761.8186
   4051,   7974.12109,   1522.62158,    1761.8186
   4052,   7986.61963,   1522.62158,    1761.8186
   4053,   7999.11865,   1522.62158,    1761.8186
   4054,   8011.61719,   1522.62158,    1761.8186
   4055,   8024.11572,   1522.62158,    1761.8186
   4056,   8036.61426,   1522.62158,    1761.8186
   4057,   8049.11279,   1522.62158,    1761.8186
   4058,   8061.61133,   1522.62158,    1761.8186
   4059,   8074.11035,   1522.62158,    1761.8186
   4060,   8086.60889,   1522.62158,    1761.8186
   4061,   8099.10742,   1522.62158,    1761.8186
   4062,   8111.60596,   1522.62158,    1761.8186
   4063,   8124.10449,   1522.62158,    1761.8186
   4064,   8136.60352,   1522.62158,    1761.8186
   4065,   8149.10205,   1522.62158,    1761.8186
   4066,   8161.60059,   1522.62158,    1761.8186
   4067,   8174.09912,   1522.62158,    1761.8186
   4068,   8186.59766,   1522.62158,    1761.8186
   4069,   8199.09668,   1522.62158,    1761.8186
   4070,   8211.59473,   1522.62158,    1761.8186
   4071,   8224.09375,   1522.62158,    1761.8186
   4072,   8236.59277,   1522.62158,    1761.8186
   4073,   8249.09082,   1522.62158,    1761.8186
   4074,   8261.58984,   1522.62158,    1761.8186
   4075,   8274.08789,   1522.62158,    1761.8186
   4076,   8286.58691,   1522.62158,    1761.8186
   4077,   8299.08496,   1522.62158,    1761.8186
   4078,   8311.58398,   1522.62158,    1761.8186
   4079,   8324.08301,   1522.62158,    1761.8186
   4080,   8336.58105,   1522.62158,    1761.8186
   4081,   8349.08008,   1522.62158,    1761.8186
   4082,   8361.57812,   1522.62158,    1761.8186
   4083,   8374.07715,   1522.62158,    1761.8186
   4084,   8386.57617,   1522.62158,    1761.8186
   4085,   8399.07422,   1522.62158,    1761.8186
   4086,   8411.57324,   1522.62158,    1761.8186
   4087,   8424.07129,   1522.62158,    1761.8186
   4088,   8436.57031,   1522.62158,    1761.8186
   4089,   8449.06934,   1522.62158,    1761.8186
   4090,   8461.56738,   1522.62158,    1761.8186
   4091,   8474.06641,   1522.62158,    1761.8186
   4092,   8486.56445,   1522.62158,    1761.8186
   4093,   8499.06348,   1522.62158,    1761.8186
   4094,   8511.56152,   1522.62158,    1761.8186
   4095,   8524.06055,   1522.62158,    1761.8186
   4096,   8536.55957,   1522.62158,    1761.8186
   4097,   8549.05762,   1522.62158,    1761.8186
   4098,   8561.55664,   1522.62158,    1761.8186
   4099,   8574.05469,   1522.62158,    1761.8186
   4100,   8586.55371,   1522.62158,    1761.8186
   4101,   8599.05273,   1522.62158,    1761.8186
   4102,   8611.55078,   1522.62158,    1761.8186
   4103,    8624.0498,   1522.62158,    1761.8186
   4104,   8636.54785,   1522.62158,    1761.8186
   4105,   8649.04688,   1522.62158,    1761.8186
   4106,   7024.22607,   1522.62158,    1761.8186
   4107,   7036.72461,   1522.62158,    1761.8186
   4108,   7049.22314,   1522.62158,    1761.8186
   4109,   7061.72168,   1522.62158,    1761.8186
   4110,   7074.22021,   1522.62158,    1761.8186
   4111,   7086.71924,   1522.62158,    1761.8186
   4112,   7099.21777,   1522.62158,    1761.8186
   4113,   7111.71631,   1522.62158,    1761.8186
   4114,   7124.21484,   1522.62158,    1761.8186
   4115,   7136.71338,   1522.62158,    1761.8186
   4116,   7149.21191,   1522.62158,    1761.8186
   4117,   7161.71094,   1522.62158,    1761.8186
   4118,   7174.20947,   1522.62158,    1761.8186
   4119,   7186.70801,   1522.62158,    1761.8186
   4120,   7199.20654,   1522.62158,    1761.8186
   4121,   7211.70508,   1522.62158,    1761.8186
   4122,   7224.20361,   1522.62158,    1761.8186
   4123,   7236.70264,   1522.62158,    1761.8186
   4124,   7249.20117,   1522.62158,    1761.8186
   4125,   7261.69971,   1522.62158,    1761.8186
   4126,   7274.19824,   1522.62158,    1761.8186
   4127,   7286.69678,   1522.62158,    1761.8186
   4128,    7299.1958,   1522.62158,    1761.8186
   4129,   7311.69434,   1522.62158,    1761.8186
   4130,   7324.19287,   1522.62158,    1761.8186
   4131,   7336.69141,   1522.62158,    1761.8186
   4132,   7349.18994,   1522.62158,    1761.8186
   4133,   7361.68848,   1522.62158,    1761.8186
   4134,    7374.1875,   1522.62158,    1761.8186
   4135,   7386.68604,   1522.62158,    1761.8186
   4136,   7399.18457,   1522.62158,    1761.8186
   4137,   7411.68311,   1522.62158,    1761.8186
   4138,   7424.18164,   1522.62158,    1761.8186
   4139,   7436.68066,   1522.62158,    1761.8186
   4140,    7449.1792,   1522.62158,    1761.8186
   4141,   7461.67773,   1522.62158,    1761.8186
   4142,   7474.17627,   1522.62158,    1761.8186
   4143,    7486.6748,   1522.62158,    1761.8186
   4144,   7499.17334,   1522.62158,    1761.8186
   4145,   7511.67236,   1522.62158,    1761.8186
   4146,    7524.1709,   1522.62158,    1761.8186
   4147,   7536.66943,   1522.62158,    1761.8186
   4148,   7549.16797,   1522.62158,    1761.8186
   4149,    7561.6665,   1522.62158,    1761.8186
   4150,   7574.16553,   1522.62158,    1761.8186
   4151,   7586.66406,   1522.62158,    1761.8186
   4152,    7599.1626,   1522.62158,    1761.8186
   4153,   7611.66113,   1522.62158,    1761.8186
   4154,   7624.15967,   1522.62158,    1761.8186
   4155,    7636.6582,   1522.62158,    1761.8186
   4156,   7649.15723,   1522.62158,    1761.8186
   4157,   7661.65576,   1522.62158,    1761.8186
   4158,    7674.1543,   1522.62158,    1761.8186
   4159,   7686.65283,   1522.62158,    1761.8186
   4160,   7699.15137,   1522.62158,    1761.8186
   4161,    7711.6499,   1522.62158,    1761.8186
   4162,   7724.14893,   1522.62158,    1761.8186
   4163,   7736.64746,   1522.62158,    1761.8186
   4164,     7749.146,   1522.62158,    1761.8186
   4165,   7761.64453,   1522.62158,    1761.8186
   4166,   7774.14307,   1522.62158,    1761.8186
   4167,   7786.64209,   1522.62158,    1761.8186
   4168,   7799.14062,   1522.62158,    1761.8186
   4169,   7811.63916,   1522.62158,    1761.8186
   4170,    7824.1377,   1522.62158,    1761.8186
   4171,   6199.31689,   1522.62158,    1761.8186
   4172,   6211.81543,   1522.62158,    1761.8186
   4173,   6224.31396,   1522.62158,    1761.8186
   4174,    6236.8125,   1522.62158,    1761.8186
   4175,   6249.31152,   1522.62158,    1761.8186
   4176,   6261.81006,   1522.62158,    1761.8186
   4177,   6274.30859,   1522.62158,    1761.8186
   4178,   6286.80713,   1522.62158,    1761.8186
   4179,   6299.30566,   1522.62158,    1761.8186
   4180,    6311.8042,   1522.62158,    1761.8186
   4181,   6324.30322,   1522.62158,    1761.8186
   4182,   6336.80176,   1522.62158,    1761.8186
   4183,   6349.30029,   1522.62158,    1761.8186
   4184,   6361.79883,   1522.62158,    1761.8186
   4185,   6374.29736,   1522.62158,    1761.8186
   4186,   6386.79639,   1522.62158,    1761.8186
   4187,   6399.29492,   1522.62158,    1761.8186
   4188,   6411.79346,   1522.62158,    1761.8186
   4189,   6424.29199,   1522.62158,    1761.8186
   4190,   6436.79053,   1522.62158,    1761.8186
   4191,   6449.28906,   1522.62158,    1761.8186
   4192,   6461.78809,   1522.62158,    1761.8186
   4193,   6474.28662,   1522.62158,    1761.8186
   4194,   6486.78516,   1522.62158,    1761.8186
   4195,   6499.28369,   1522.62158,    1761.8186
   4196,   6511.78223,   1522.62158,    1761.8186
   4197,   6524.28076,   1522.62158,    1761.8186
   4198,   6536.77979,   1522.62158,    1761.8186
   4199,   6549.27832,   1522.62158,    1761.8186
   4200,   6561.77686,   1522.62158,    1761.8186
   4201,   6574.27539,   1522.62158,    1761.8186
   4202,   6586.77393,   1522.62158,    1761.8186
   4203,   6599.27295,   1522.62158,    1761.8186
   4204,   6611.77148,   1522.62158,    1761.8186
   4205,   6624.27002,   1522.62158,    1761.8186
   4206,   6636.76855,   1522.62158,    1761.8186
   4207,   6649.26709,   1522.62158,    1761.8186
   4208,   6661.76562,   1522.62158,    1761.8186
   4209,   6674.26465,   1522.62158,    1761.8186
   4210,   6686.76318,   1522.62158,    1761.8186
   4211,   6699.26172,   1522.62158,    1761.8186
   4212,   6711.76025,   1522.62158,    1761.8186
   4213,   6724.25879,   1522.62158,    1761.8186
   4214,   6736.75781,   1522.62158,    1761.8186
   4215,   6749.25635,   1522.62158,    1761.8186
   4216,   6761.75488,   1522.62158,    1761.8186
   4217,   6774.25342,   1522.62158,    1761.8186
   4218,   6786.75195,   1522.62158,    1761.8186
   4219,   6799.25049,   1522.62158,    1761.8186
   4220,   6811.74951,   1522.62158,    1761.8186
   4221,   6824.24805,   1522.62158,    1761.8186
   4222,   6836.74658,   1522.62158,    1761.8186
   4223,   6849.24512,   1522.62158,    1761.8186
   4224,   6861.74365,   1522.62158,    1761.8186
   4225,   6874.24219,   1522.62158,    1761.8186
   4226,   6886.74121,   1522.62158,    1761.8186
   4227,   6899.23975,   1522.62158,    1761.8186
   4228,   6911.73828,   1522.62158,    1761.8186
   4229,   6924.23682,   1522.62158,    1761.8186
   4230,   6936.73535,   1522.62158,    1761.8186
   4231,   6949.23438,   1522.62158,    1761.8186
   4232,   6961.73291,   1522.62158,    1761.8186
   4233,   6974.23145,   1522.62158,    1761.8186
   4234,   6986.72998,   1522.62158,    1761.8186
   4235,   6999.22852,   1522.62158,    1761.8186
   4236,   5374.40771,   1522.62158,    1761.8186
   4237,   5386.90625,   1522.62158,    1761.8186
   4238,   5399.40479,   1522.62158,    1761.8186
   4239,   5411.90381,   1522.62158,    1761.8186
   4240,   5424.40234,   1522.62158,    1761.8186
   4241,   5436.90088,   1522.62158,    1761.8186
   4242,   5449.39941,   1522.62158,    1761.8186
   4243,   5461.89795,   1522.62158,    1761.8186
   4244,   5474.39648,   1522.62158,    1761.8186
   4245,   5486.89551,   1522.62158,    1761.8186
   4246,   5499.39404,   1522.62158,    1761.8186
   4247,   5511.89258,   1522.62158,    1761.8186
   4248,   5524.39111,   1522.62158,    1761.8186
   4249,   5536.88965,   1522.62158,    1761.8186
   4250,   5549.38867,   1522.62158,    1761.8186
   4251,   5561.88721,   1522.62158,    1761.8186
   4252,   5574.38574,   1522.62158,    1761.8186
   4253,   5586.88428,   1522.62158,    1761.8186
   4254,   5599.38281,   1522.62158,    1761.8186
   4255,   5611.88135,   1522.62158,    1761.8186
   4256,   5624.38037,   1522.62158,    1761.8186
   4257,   5636.87891,   1522.62158,    1761.8186
   4258,   5649.37744,   1522.62158,    1761.8186
   4259,   5661.87598,   1522.62158,    1761.8186
   4260,   5674.37451,   1522.62158,    1761.8186
   4261,   5686.87305,   1522.62158,    1761.8186
   4262,   5699.37207,   1522.62158,    1761.8186
   4263,   5711.87061,   1522.62158,    1761.8186
   4264,   5724.36914,   1522.62158,    1761.8186
   4265,   5736.86768,   1522.62158,    1761.8186
   4266,   5749.36621,   1522.62158,    1761.8186
   4267,   5761.86523,   1522.62158,    1761.8186
   4268,   5774.36377,   1522.62158,    1761.8186
   4269,    5786.8623,   1522.62158,    1761.8186
   4270,   5799.36084,   1522.62158,    1761.8186
   4271,   5811.85938,   1522.62158,    1761.8186
   4272,   5824.35791,   1522.62158,    1761.8186
   4273,   5836.85693,   1522.62158,    1761.8186
   4274,   5849.35547,   1522.62158,    1761.8186
   4275,     5861.854,   1522.62158,    1761.8186
   4276,   5874.35254,   1522.62158,    1761.8186
   4277,   5886.85107,   1522.62158,    1761.8186
   4278,    5899.3501,   1522.62158,    1761.8186
   4279,   5911.84863,   1522.62158,    1761.8186
   4280,   5924.34717,   1522.62158,    1761.8186
   4281,    5936.8457,   1522.62158,    1761.8186
   4282,   5949.34424,   1522.62158,    1761.8186
   4283,   5961.84277,   1522.62158,    1761.8186
   4284,    5974.3418,   1522.62158,    1761.8186
   4285,   5986.84033,   1522.62158,    1761.8186
   4286,   5999.33887,   1522.62158,    1761.8186
   4287,    6011.8374,   1522.62158,    1761.8186
   4288,   6024.33594,   1522.62158,    1761.8186
   4289,   6036.83447,   1522.62158,    1761.8186
   4290,    6049.3335,   1522.62158,    1761.8186
   4291,   6061.83203,   1522.62158,    1761.8186
   4292,   6074.33057,   1522.62158,    1761.8186
   4293,    6086.8291,   1522.62158,    1761.8186
   4294,   6099.32764,   1522.62158,    1761.8186
   4295,   6111.82666,   1522.62158,    1761.8186
   4296,    6124.3252,   1522.62158,    1761.8186
   4297,   6136.82373,   1522.62158,    1761.8186
   4298,   6149.32227,   1522.62158,    1761.8186
   4299,    6161.8208,   1522.62158,    1761.8186
   4300,   6174.31934,   1522.62158,    1761.8186
   4301,   4549.49854,   1522.62158,    1761.8186
   4302,   4561.99707,   1522.62158,    1761.8186
   4303,   4574.49609,   1522.62158,    1761.8186
   4304,   4586.99463,   1522.62158,    1761.8186
   4305,   4599.49316,   1522.62158,    1761.8186
   4306,    4611.9917,   1522.62158,    1761.8186
   4307,   4624.49023,   1522.62158,    1761.8186
   4308,   4636.98877,   1522.62158,    1761.8186
   4309,   4649.48779,   1522.62158,    1761.8186
   4310,   4661.98633,   1522.62158,    1761.8186
   4311,   4674.48486,   1522.62158,    1761.8186
   4312,    4686.9834,   1522.62158,    1761.8186
   4313,   4699.48193,   1522.62158,    1761.8186
   4314,   4711.98096,   1522.62158,    1761.8186
   4315,   4724.47949,   1522.62158,    1761.8186
   4316,   4736.97803,   1522.62158,    1761.8186
   4317,   4749.47656,   1522.62158,    1761.8186
   4318,    4761.9751,   1522.62158,    1761.8186
   4319,   4774.47363,   1522.62158,    1761.8186
   4320,   4786.97266,   1522.62158,    1761.8186
   4321,   4799.47119,   1522.62158,    1761.8186
   4322,   4811.96973,   1522.62158,    1761.8186
   4323,   4824.46826,   1522.62158,    1761.8186
   4324,    4836.9668,   1522.62158,    1761.8186
   4325,   4849.46533,   1522.62158,    1761.8186
   4326,   4861.96436,   1522.62158,    1761.8186
   4327,   4874.46289,   1522.62158,    1761.8186
   4328,   4886.96143,   1522.62158,    1761.8186
   4329,   4899.45996,   1522.62158,    1761.8186
   4330,    4911.9585,   1522.62158,    1761.8186
   4331,   4924.45752,   1522.62158,    1761.8186
   4332,   4936.95605,   1522.62158,    1761.8186
   4333,   4949.45459,   1522.62158,    1761.8186
   4334,   4961.95312,   1522.62158,    1761.8186
   4335,   4974.45166,   1522.62158,    1761.8186
   4336,    4986.9502,   1522.62158,    1761.8186
   4337,   4999.44922,   1522.62158,    1761.8186
   4338,   5011.94775,   1522.62158,    1761.8186
   4339,   5024.44629,   1522.62158,    1761.8186
   4340,   5036.94482,   1522.62158,    1761.8186
   4341,   5049.44336,   1522.62158,    1761.8186
   4342,   5061.94238,   1522.62158,    1761.8186
   4343,   5074.44092,   1522.62158,    1761.8186
   4344,   5086.93945,   1522.62158,    1761.8186
   4345,   5099.43799,   1522.62158,    1761.8186
   4346,   5111.93652,   1522.62158,    1761.8186
   4347,   5124.43506,   1522.62158,    1761.8186
   4348,   5136.93408,   1522.62158,    1761.8186
   4349,   5149.43262,   1522.62158,    1761.8186
   4350,   5161.93115,   1522.62158,    1761.8186
   4351,   5174.42969,   1522.62158,    1761.8186
   4352,   5186.92822,   1522.62158,    1761.8186
   4353,   5199.42676,   1522.62158,    1761.8186
   4354,   5211.92578,   1522.62158,    1761.8186
   4355,   5224.42432,   1522.62158,    1761.8186
   4356,   5236.92285,   1522.62158,    1761.8186
   4357,   5249.42139,   1522.62158,    1761.8186
   4358,   5261.91992,   1522.62158,    1761.8186
   4359,   5274.41895,   1522.62158,    1761.8186
   4360,   5286.91748,   1522.62158,    1761.8186
   4361,   5299.41602,   1522.62158,    1761.8186
   4362,   5311.91455,   1522.62158,    1761.8186
   4363,   5324.41309,   1522.62158,    1761.8186
   4364,   5336.91162,   1522.62158,    1761.8186
   4365,   5349.41064,   1522.62158,    1761.8186
   4366,    3724.5896,   1522.62158,    1761.8186
   4367,   3737.08813,   1522.62158,    1761.8186
   4368,   3749.58667,   1522.62158,    1761.8186
   4369,   3762.08545,   1522.62158,    1761.8186
   4370,   3774.58398,   1522.62158,    1761.8186
   4371,   3787.08276,   1522.62158,    1761.8186
   4372,    3799.5813,   1522.62158,    1761.8186
   4373,   3812.07983,   1522.62158,    1761.8186
   4374,   3824.57861,   1522.62158,    1761.8186
   4375,   3837.07715,   1522.62158,    1761.8186
   4376,   3849.57568,   1522.62158,    1761.8186
   4377,   3862.07446,   1522.62158,    1761.8186
   4378,     3874.573,   1522.62158,    1761.8186
   4379,   3887.07153,   1522.62158,    1761.8186
   4380,   3899.57031,   1522.62158,    1761.8186
   4381,   3912.06885,   1522.62158,    1761.8186
   4382,   3924.56738,   1522.62158,    1761.8186
   4383,   3937.06616,   1522.62158,    1761.8186
   4384,    3949.5647,   1522.62158,    1761.8186
   4385,   3962.06348,   1522.62158,    1761.8186
   4386,   3974.56201,   1522.62158,    1761.8186
   4387,   3987.06055,   1522.62158,    1761.8186
   4388,   3999.55933,   1522.62158,    1761.8186
   4389,   4012.05786,   1522.62158,    1761.8186
   4390,    4024.5564,   1522.62158,    1761.8186
   4391,   4037.05518,   1522.62158,    1761.8186
   4392,   4049.55371,   1522.62158,    1761.8186
   4393,   4062.05225,   1522.62158,    1761.8186
   4394,   4074.55103,   1522.62158,    1761.8186
   4395,   4087.04956,   1522.62158,    1761.8186
   4396,   4099.54834,   1522.62158,    1761.8186
   4397,   4112.04688,   1522.62158,    1761.8186
   4398,   4124.54541,   1522.62158,    1761.8186
   4399,   4137.04395,   1522.62158,    1761.8186
   4400,   4149.54248,   1522.62158,    1761.8186
   4401,    4162.0415,   1522.62158,    1761.8186
   4402,   4174.54004,   1522.62158,    1761.8186
   4403,   4187.03857,   1522.62158,    1761.8186
   4404,   4199.53711,   1522.62158,    1761.8186
   4405,   4212.03564,   1522.62158,    1761.8186
   4406,   4224.53467,   1522.62158,    1761.8186
   4407,    4237.0332,   1522.62158,    1761.8186
   4408,   4249.53174,   1522.62158,    1761.8186
   4409,   4262.03027,   1522.62158,    1761.8186
   4410,   4274.52881,   1522.62158,    1761.8186
   4411,   4287.02734,   1522.62158,    1761.8186
   4412,   4299.52637,   1522.62158,    1761.8186
   4413,    4312.0249,   1522.62158,    1761.8186
   4414,   4324.52344,   1522.62158,    1761.8186
   4415,   4337.02197,   1522.62158,    1761.8186
   4416,   4349.52051,   1522.62158,    1761.8186
   4417,   4362.01904,   1522.62158,    1761.8186
   4418,   4374.51807,   1522.62158,    1761.8186
   4419,    4387.0166,   1522.62158,    1761.8186
   4420,   4399.51514,   1522.62158,    1761.8186
   4421,   4412.01367,   1522.62158,    1761.8186
   4422,   4424.51221,   1522.62158,    1761.8186
   4423,   4437.01123,   1522.62158,    1761.8186
   4424,   4449.50977,   1522.62158,    1761.8186
   4425,    4462.0083,   1522.62158,    1761.8186
   4426,   4474.50684,   1522.62158,    1761.8186
   4427,   4487.00537,   1522.62158,    1761.8186
   4428,   4499.50391,   1522.62158,    1761.8186
   4429,   4512.00293,   1522.62158,    1761.8186
   4430,   4524.50146,   1522.62158,    1761.8186
   4431,   2899.68042,   1522.62158,    1761.8186
   4432,   2912.17896,   1522.62158,    1761.8186
   4433,   2924.67773,   1522.62158,    1761.8186
   4434,   2937.17627,   1522.62158,    1761.8186
   4435,   2949.67505,   1522.62158,    1761.8186
   4436,   2962.17358,   1522.62158,    1761.8186
   4437,   2974.67212,   1522.62158,    1761.8186
   4438,    2987.1709,   1522.62158,    1761.8186
   4439,   2999.66943,   1522.62158,    1761.8186
   4440,   3012.16797,   1522.62158,    1761.8186
   4441,   3024.66675,   1522.62158,    1761.8186
   4442,   3037.16528,   1522.62158,    1761.8186
   4443,   3049.66382,   1522.62158,    1761.8186
   4444,    3062.1626,   1522.62158,    1761.8186
   4445,   3074.66113,   1522.62158,    1761.8186
   4446,   3087.15967,   1522.62158,    1761.8186
   4447,   3099.65845,   1522.62158,    1761.8186
   4448,   3112.15698,   1522.62158,    1761.8186
   4449,   3124.65576,   1522.62158,    1761.8186
   4450,    3137.1543,   1522.62158,    1761.8186
   4451,   3149.65283,   1522.62158,    1761.8186
   4452,   3162.15161,   1522.62158,    1761.8186
   4453,   3174.65015,   1522.62158,    1761.8186
   4454,   3187.14868,   1522.62158,    1761.8186
   4455,   3199.64746,   1522.62158,    1761.8186
   4456,     3212.146,   1522.62158,    1761.8186
   4457,   3224.64453,   1522.62158,    1761.8186
   4458,   3237.14331,   1522.62158,    1761.8186
   4459,   3249.64185,   1522.62158,    1761.8186
   4460,   3262.14038,   1522.62158,    1761.8186
   4461,   3274.63916,   1522.62158,    1761.8186
   4462,    3287.1377,   1522.62158,    1761.8186
   4463,   3299.63647,   1522.62158,    1761.8186
   4464,   3312.13501,   1522.62158,    1761.8186
   4465,   3324.63354,   1522.62158,    1761.8186
   4466,   3337.13232,   1522.62158,    1761.8186
   4467,   3349.63086,   1522.62158,    1761.8186
   4468,   3362.12939,   1522.62158,    1761.8186
   4469,   3374.62817,   1522.62158,    1761.8186
   4470,   3387.12671,   1522.62158,    1761.8186
   4471,   3399.62524,   1522.62158,    1761.8186
   4472,   3412.12402,   1522.62158,    1761.8186
   4473,   3424.62256,   1522.62158,    1761.8186
   4474,   3437.12109,   1522.62158,    1761.8186
   4475,   3449.61987,   1522.62158,    1761.8186
   4476,   3462.11841,   1522.62158,    1761.8186
   4477,   3474.61719,   1522.62158,    1761.8186
   4478,   3487.11572,   1522.62158,    1761.8186
   4479,   3499.61426,   1522.62158,    1761.8186
   4480,   3512.11304,   1522.62158,    1761.8186
   4481,   3524.61157,   1522.62158,    1761.8186
   4482,   3537.11011,   1522.62158,    1761.8186
   4483,   3549.60889,   1522.62158,    1761.8186
   4484,   3562.10742,   1522.62158,    1761.8186
   4485,   3574.60596,   1522.62158,    1761.8186
   4486,   3587.10474,   1522.62158,    1761.8186
   4487,   3599.60327,   1522.62158,    1761.8186
   4488,   3612.10181,   1522.62158,    1761.8186
   4489,   3624.60059,   1522.62158,    1761.8186
   4490,   3637.09912,   1522.62158,    1761.8186
   4491,    3649.5979,   1522.62158,    1761.8186
   4492,   3662.09644,   1522.62158,    1761.8186
   4493,   3674.59497,   1522.62158,    1761.8186
   4494,   3687.09375,   1522.62158,    1761.8186
   4495,   3699.59229,   1522.62158,    1761.8186
   4496,   2074.77124,   1522.62158,    1761.8186
   4497,   2087.27002,   1522.62158,    1761.8186
   4498,   2099.76855,   1522.62158,    1761.8186
   4499,   2112.26733,   1522.62158,    1761.8186
   4500,   2124.76587,   1522.62158,    1761.8186
   4501,    2137.2644,   1522.62158,    1761.8186
   4502,   2149.76318,   1522.62158,    1761.8186
   4503,   2162.26172,   1522.62158,    1761.8186
   4504,   2174.76025,   1522.62158,    1761.8186
   4505,   2187.25903,   1522.62158,    1761.8186
   4506,   2199.75757,   1522.62158,    1761.8186
   4507,    2212.2561,   1522.62158,    1761.8186
   4508,   2224.75488,   1522.62158,    1761.8186
   4509,   2237.25342,   1522.62158,    1761.8186
   4510,   2249.75195,   1522.62158,    1761.8186
   4511,   2262.25073,   1522.62158,    1761.8186
   4512,   2274.74927,   1522.62158,    1761.8186
   4513,   2287.24805,   1522.62158,    1761.8186
   4514,   2299.74658,   1522.62158,    1761.8186
   4515,   2312.24512,   1522.62158,    1761.8186
   4516,    2324.7439,   1522.62158,    1761.8186
   4517,   2337.24243,   1522.62158,    1761.8186
   4518,   2349.74097,   1522.62158,    1761.8186
   4519,   2362.23975,   1522.62158,    1761.8186
   4520,   2374.73828,   1522.62158,    1761.8186
   4521,   2387.23682,   1522.62158,    1761.8186
   4522,    2399.7356,   1522.62158,    1761.8186
   4523,   2412.23413,   1522.62158,    1761.8186
   4524,   2424.73267,   1522.62158,    1761.8186
   4525,   2437.23145,   1522.62158,    1761.8186
   4526,   2449.72998,   1522.62158,    1761.8186
   4527,   2462.22876,   1522.62158,    1761.8186
   4528,   2474.72729,   1522.62158,    1761.8186
   4529,   2487.22583,   1522.62158,    1761.8186
   4530,   2499.72461,   1522.62158,    1761.8186
   4531,   2512.22314,   1522.62158,    1761.8186
   4532,   2524.72168,   1522.62158,    1761.8186
   4533,   2537.22046,   1522.62158,    1761.8186
   4534,   2549.71899,   1522.62158,    1761.8186
   4535,   2562.21753,   1522.62158,    1761.8186
   4536,   2574.71631,   1522.62158,    1761.8186
   4537,   2587.21484,   1522.62158,    1761.8186
   4538,   2599.71338,   1522.62158,    1761.8186
   4539,   2612.21216,   1522.62158,    1761.8186
   4540,   2624.71069,   1522.62158,    1761.8186
   4541,   2637.20947,   1522.62158,    1761.8186
   4542,   2649.70801,   1522.62158,    1761.8186
   4543,   2662.20654,   1522.62158,    1761.8186
   4544,   2674.70532,   1522.62158,    1761.8186
   4545,   2687.20386,   1522.62158,    1761.8186
   4546,   2699.70239,   1522.62158,    1761.8186
   4547,   2712.20117,   1522.62158,    1761.8186
   4548,   2724.69971,   1522.62158,    1761.8186
   4549,   2737.19824,   1522.62158,    1761.8186
   4550,   2749.69702,   1522.62158,    1761.8186
   4551,   2762.19556,   1522.62158,    1761.8186
   4552,   2774.69434,   1522.62158,    1761.8186
   4553,   2787.19287,   1522.62158,    1761.8186
   4554,   2799.69141,   1522.62158,    1761.8186
   4555,   2812.19019,   1522.62158,    1761.8186
   4556,   2824.68872,   1522.62158,    1761.8186
   4557,   2837.18726,   1522.62158,    1761.8186
   4558,   2849.68604,   1522.62158,    1761.8186
   4559,   2862.18457,   1522.62158,    1761.8186
   4560,   2874.68311,   1522.62158,    1761.8186
   4561,    1249.8623,   1522.62158,    1761.8186
   4562,   1262.36084,   1522.62158,    1761.8186
   4563,    1274.8595,   1522.62158,    1761.8186
   4564,   1287.35815,   1522.62158,    1761.8186
   4565,   1299.85669,   1522.62158,    1761.8186
   4566,   1312.35535,   1522.62158,    1761.8186
   4567,     1324.854,   1522.62158,    1761.8186
   4568,   1337.35266,   1522.62158,    1761.8186
   4569,    1349.8512,   1522.62158,    1761.8186
   4570,   1362.34985,   1522.62158,    1761.8186
   4571,   1374.84851,   1522.62158,    1761.8186
   4572,   1387.34717,   1522.62158,    1761.8186
   4573,    1399.8457,   1522.62158,    1761.8186
   4574,   1412.34436,   1522.62158,    1761.8186
   4575,   1424.84302,   1522.62158,    1761.8186
   4576,   1437.34155,   1522.62158,    1761.8186
   4577,   1449.84021,   1522.62158,    1761.8186
   4578,   1462.33887,   1522.62158,    1761.8186
   4579,   1474.83752,   1522.62158,    1761.8186
   4580,   1487.33606,   1522.62158,    1761.8186
   4581,   1499.83472,   1522.62158,    1761.8186
   4582,   1512.33337,   1522.62158,    1761.8186
   4583,   1524.83191,   1522.62158,    1761.8186
   4584,   1537.33057,   1522.62158,    1761.8186
   4585,   1549.82922,   1522.62158,    1761.8186
   4586,   1562.32788,   1522.62158,    1761.8186
   4587,   1574.82642,   1522.62158,    1761.8186
   4588,   1587.32507,   1522.62158,    1761.8186
   4589,   1599.82373,   1522.62158,    1761.8186
   4590,   1612.32227,   1522.62158,    1761.8186
   4591,   1624.82092,   1522.62158,    1761.8186
   4592,   1637.31958,   1522.62158,    1761.8186
   4593,   1649.81824,   1522.62158,    1761.8186
   4594,   1662.31677,   1522.62158,    1761.8186
   4595,   1674.81543,   1522.62158,    1761.8186
   4596,   1687.31409,   1522.62158,    1761.8186
   4597,   1699.81262,   1522.62158,    1761.8186
   4598,   1712.31128,   1522.62158,    1761.8186
   4599,   1724.80994,   1522.62158,    1761.8186
   4600,   1737.30859,   1522.62158,    1761.8186
   4601,   1749.80713,   1522.62158,    1761.8186
   4602,   1762.30579,   1522.62158,    1761.8186
   4603,   1774.80444,   1522.62158,    1761.8186
   4604,   1787.30298,   1522.62158,    1761.8186
   4605,   1799.80164,   1522.62158,    1761.8186
   4606,   1812.30029,   1522.62158,    1761.8186
   4607,   1824.79895,   1522.62158,    1761.8186
   4608,   1837.29749,   1522.62158,    1761.8186
   4609,   1849.79614,   1522.62158,    1761.8186
   4610,    1862.2948,   1522.62158,    1761.8186
   4611,   1874.79333,   1522.62158,    1761.8186
   4612,   1887.29199,   1522.62158,    1761.8186
   4613,   1899.79065,   1522.62158,    1761.8186
   4614,   1912.28931,   1522.62158,    1761.8186
   4615,   1924.78784,   1522.62158,    1761.8186
   4616,    1937.2865,   1522.62158,    1761.8186
   4617,   1949.78516,   1522.62158,    1761.8186
   4618,   1962.28369,   1522.62158,    1761.8186
   4619,   1974.78235,   1522.62158,    1761.8186
   4620,   1987.28101,   1522.62158,    1761.8186
   4621,   1999.77966,   1522.62158,    1761.8186
   4622,    2012.2782,   1522.62158,    1761.8186
   4623,   2024.77686,   1522.62158,    1761.8186
   4624,   2037.27551,   1522.62158,    1761.8186
   4625,   2049.77417,   1522.62158,    1761.8186
   4626,   424.953156,   1522.62158,    1761.8186
   4627,   437.451782,   1522.62158,    1761.8186
   4628,   449.950409,   1522.62158,    1761.8186
   4629,   462.449036,   1522.62158,    1761.8186
   4630,   474.947662,   1522.62158,    1761.8186
   4631,   487.446289,   1522.62158,    1761.8186
   4632,   499.944916,   1522.62158,    1761.8186
   4633,   512.443542,   1522.62158,    1761.8186
   4634,   524.942139,   1522.62158,    1761.8186
   4635,   537.440796,   1522.62158,    1761.8186
   4636,   549.939392,   1522.62158,    1761.8186
   4637,   562.437988,   1522.62158,    1761.8186
   4638,   574.936646,   1522.62158,    1761.8186
   4639,   587.435242,   1522.62158,    1761.8186
   4640,   599.933899,   1522.62158,    1761.8186
   4641,   612.432495,   1522.62158,    1761.8186
   4642,   624.931152,   1522.62158,    1761.8186
   4643,   637.429749,   1522.62158,    1761.8186
   4644,   649.928345,   1522.62158,    1761.8186
   4645,   662.427002,   1522.62158,    1761.8186
   4646,   674.925598,   1522.62158,    1761.8186
   4647,   687.424255,   1522.62158,    1761.8186
   4648,   699.922852,   1522.62158,    1761.8186
   4649,   712.421509,   1522.62158,    1761.8186
   4650,   724.920105,   1522.62158,    1761.8186
   4651,   737.418762,   1522.62158,    1761.8186
   4652,   749.917358,   1522.62158,    1761.8186
   4653,   762.415955,   1522.62158,    1761.8186
   4654,   774.914612,   1522.62158,    1761.8186
   4655,   787.413208,   1522.62158,    1761.8186
   4656,   799.911865,   1522.62158,    1761.8186
   4657,   812.410461,   1522.62158,    1761.8186
   4658,   824.909119,   1522.62158,    1761.8186
   4659,   837.407715,   1522.62158,    1761.8186
   4660,   849.906311,   1522.62158,    1761.8186
   4661,   862.404968,   1522.62158,    1761.8186
   4662,   874.903564,   1522.62158,    1761.8186
   4663,   887.402222,   1522.62158,    1761.8186
   4664,   899.900818,   1522.62158,    1761.8186
   4665,   912.399475,   1522.62158,    1761.8186
   4666,   924.898071,   1522.62158,    1761.8186
   4667,   937.396667,   1522.62158,    1761.8186
   4668,   949.895325,   1522.62158,    1761.8186
   4669,   962.393921,   1522.62158,    1761.8186
   4670,   974.892578,   1522.62158,    1761.8186
   4671,   987.391174,   1522.62158,    1761.8186
   4672,   999.889832,   1522.62158,    1761.8186
   4673,   1012.38843,   1522.62158,    1761.8186
   4674,   1024.88708,   1522.62158,    1761.8186
   4675,   1037.38562,   1522.62158,    1761.8186
   4676,   1049.88428,   1522.62158,    1761.8186
   4677,   1062.38293,   1522.62158,    1761.8186
   4678,   1074.88159,   1522.62158,    1761.8186
   4679,   1087.38013,   1522.62158,    1761.8186
   4680,   1099.87878,   1522.62158,    1761.8186
   4681,   1112.37744,   1522.62158,    1761.8186
   4682,   1124.87598,   1522.62158,    1761.8186
   4683,   1137.37463,   1522.62158,    1761.8186
   4684,   1149.87329,   1522.62158,    1761.8186
   4685,   1162.37195,   1522.62158,    1761.8186
   4686,   1174.87048,   1522.62158,    1761.8186
   4687,   1187.36914,   1522.62158,    1761.8186
   4688,    1199.8678,   1522.62158,    1761.8186
   4689,   1212.36633,   1522.62158,    1761.8186
   4690,   1224.86499,   1522.62158,    1761.8186
   4691,   12.4986229,   1522.62158,    1761.8186
   4692,   24.9972458,   1522.62158,    1761.8186
   4693,   37.4958687,   1522.62158,    1761.8186
   4694,   49.9944916,   1522.62158,    1761.8186
   4695,   62.4931145,   1522.62158,    1761.8186
   4696,   74.9917374,   1522.62158,    1761.8186
   4697,   87.4903564,   1522.62158,    1761.8186
   4698,   99.9889832,   1522.62158,    1761.8186
   4699,   112.487602,   1522.62158,    1761.8186
   4700,   124.986229,   1522.62158,    1761.8186
   4701,   137.484848,   1522.62158,    1761.8186
   4702,   149.983475,   1522.62158,    1761.8186
   4703,   162.482086,   1522.62158,    1761.8186
   4704,   174.980713,   1522.62158,    1761.8186
   4705,    187.47934,   1522.62158,    1761.8186
   4706,   199.977966,   1522.62158,    1761.8186
   4707,   212.476578,   1522.62158,    1761.8186
   4708,   224.975204,   1522.62158,    1761.8186
   4709,   237.473831,   1522.62158,    1761.8186
   4710,   249.972458,   1522.62158,    1761.8186
   4711,   262.471069,   1522.62158,    1761.8186
   4712,   274.969696,   1522.62158,    1761.8186
   4713,   287.468323,   1522.62158,    1761.8186
   4714,   299.966949,   1522.62158,    1761.8186
   4715,   312.465576,   1522.62158,    1761.8186
   4716,   324.964172,   1522.62158,    1761.8186
   4717,   337.462799,   1522.62158,    1761.8186
   4718,   349.961426,   1522.62158,    1761.8186
   4719,   362.460052,   1522.62158,    1761.8186
   4720,   374.958679,   1522.62158,    1761.8186
   4721,   387.457306,   1522.62158,    1761.8186
   4722,   399.955933,   1522.62158,    1761.8186
   4723,   17748.0449,   611.738403,    1337.1814
   4724,    17760.543,   611.738403,    1337.1814
   4725,    17773.041,   611.738403,    1337.1814
   4726,   17785.5391,   611.738403,    1337.1814
   4727,   17798.0391,   611.738403,    1337.1814
   4728,   17810.5371,   611.738403,    1337.1814
   4729,   17823.0352,   611.738403,    1337.1814
   4730,   17835.5352,   611.738403,    1337.1814
   4731,   17848.0332,   611.738403,    1337.1814
   4732,   17860.5312,   611.738403,    1337.1814
   4733,   17873.0312,   611.738403,    1337.1814
   4734,   17885.5293,   611.738403,    1337.1814
   4735,   17898.0273,   611.738403,    1337.1814
   4736,   17910.5254,   611.738403,    1337.1814
   4737,   17923.0254,   611.738403,    1337.1814
   4738,   17935.5234,   611.738403,    1337.1814
   4739,   17948.0215,   611.738403,    1337.1814
   4740,   17960.5215,   611.738403,    1337.1814
   4741,   17973.0195,   611.738403,    1337.1814
   4742,   17985.5176,   611.738403,    1337.1814
   4743,   17998.0156,   611.738403,    1337.1814
   4744,   18010.5156,   611.738403,    1337.1814
   4745,   18023.0137,   611.738403,    1337.1814
   4746,   18035.5117,   611.738403,    1337.1814
   4747,   18048.0117,   611.738403,    1337.1814
   4748,   18060.5098,   611.738403,    1337.1814
   4749,   18073.0078,   611.738403,    1337.1814
   4750,   18085.5078,   611.738403,    1337.1814
   4751,   18098.0059,   611.738403,    1337.1814
   4752,   18110.5039,   611.738403,    1337.1814
   4753,    18123.002,   611.738403,    1337.1814
   4754,    18135.502,   611.738403,    1337.1814
   4755,   16923.1348,   611.738403,    1337.1814
   4756,   16935.6328,   611.738403,    1337.1814
   4757,   16948.1328,   611.738403,    1337.1814
   4758,   16960.6309,   611.738403,    1337.1814
   4759,   16973.1289,   611.738403,    1337.1814
   4760,   16985.6289,   611.738403,    1337.1814
   4761,    16998.127,   611.738403,    1337.1814
   4762,    17010.625,   611.738403,    1337.1814
   4763,    17023.123,   611.738403,    1337.1814
   4764,    17035.623,   611.738403,    1337.1814
   4765,   17048.1211,   611.738403,    1337.1814
   4766,   17060.6191,   611.738403,    1337.1814
   4767,   17073.1191,   611.738403,    1337.1814
   4768,   17085.6172,   611.738403,    1337.1814
   4769,   17098.1152,   611.738403,    1337.1814
   4770,   17110.6152,   611.738403,    1337.1814
   4771,   17123.1133,   611.738403,    1337.1814
   4772,   17135.6113,   611.738403,    1337.1814
   4773,   17148.1094,   611.738403,    1337.1814
   4774,   17160.6094,   611.738403,    1337.1814
   4775,   17173.1074,   611.738403,    1337.1814
   4776,   17185.6055,   611.738403,    1337.1814
   4777,   17198.1055,   611.738403,    1337.1814
   4778,   17210.6035,   611.738403,    1337.1814
   4779,   17223.1016,   611.738403,    1337.1814
   4780,   17235.5996,   611.738403,    1337.1814
   4781,   17248.0996,   611.738403,    1337.1814
   4782,   17260.5977,   611.738403,    1337.1814
   4783,   17273.0957,   611.738403,    1337.1814
   4784,   17285.5957,   611.738403,    1337.1814
   4785,   17298.0938,   611.738403,    1337.1814
   4786,   17310.5918,   611.738403,    1337.1814
   4787,   17323.0918,   611.738403,    1337.1814
   4788,   17335.5898,   611.738403,    1337.1814
   4789,   17348.0879,   611.738403,    1337.1814
   4790,   17360.5859,   611.738403,    1337.1814
   4791,   17373.0859,   611.738403,    1337.1814
   4792,    17385.584,   611.738403,    1337.1814
   4793,    17398.082,   611.738403,    1337.1814
   4794,    17410.582,   611.738403,    1337.1814
   4795,   17423.0801,   611.738403,    1337.1814
   4796,   17435.5781,   611.738403,    1337.1814
   4797,   17448.0762,   611.738403,    1337.1814
   4798,   17460.5762,   611.738403,    1337.1814
   4799,   17473.0742,   611.738403,    1337.1814
   4800,   17485.5723,   611.738403,    1337.1814
   4801,   17498.0723,   611.738403,    1337.1814
   4802,   17510.5703,   611.738403,    1337.1814
   4803,   17523.0684,   611.738403,    1337.1814
   4804,   17535.5684,   611.738403,    1337.1814
   4805,   17548.0664,   611.738403,    1337.1814
   4806,   17560.5645,   611.738403,    1337.1814
   4807,   17573.0625,   611.738403,    1337.1814
   4808,   17585.5625,   611.738403,    1337.1814
   4809,   17598.0605,   611.738403,    1337.1814
   4810,   17610.5586,   611.738403,    1337.1814
   4811,   17623.0586,   611.738403,    1337.1814
   4812,   17635.5566,   611.738403,    1337.1814
   4813,   17648.0547,   611.738403,    1337.1814
   4814,   17660.5547,   611.738403,    1337.1814
   4815,   17673.0527,   611.738403,    1337.1814
   4816,   17685.5508,   611.738403,    1337.1814
   4817,   17698.0488,   611.738403,    1337.1814
   4818,   17710.5488,   611.738403,    1337.1814
   4819,   17723.0469,   611.738403,    1337.1814
   4820,   16098.2256,   611.738403,    1337.1814
   4821,   16110.7246,   611.738403,    1337.1814
   4822,   16123.2227,   611.738403,    1337.1814
   4823,   16135.7217,   611.738403,    1337.1814
   4824,   16148.2207,   611.738403,    1337.1814
   4825,   16160.7188,   611.738403,    1337.1814
   4826,   16173.2178,   611.738403,    1337.1814
   4827,   16185.7158,   611.738403,    1337.1814
   4828,   16198.2148,   611.738403,    1337.1814
   4829,   16210.7139,   611.738403,    1337.1814
   4830,   16223.2119,   611.738403,    1337.1814
   4831,   16235.7109,   611.738403,    1337.1814
   4832,    16248.209,   611.738403,    1337.1814
   4833,    16260.708,   611.738403,    1337.1814
   4834,    16273.207,   611.738403,    1337.1814
   4835,   16285.7051,   611.738403,    1337.1814
   4836,   16298.2041,   611.738403,    1337.1814
   4837,   16310.7021,   611.738403,    1337.1814
   4838,   16323.2012,   611.738403,    1337.1814
   4839,   16335.7002,   611.738403,    1337.1814
   4840,   16348.1982,   611.738403,    1337.1814
   4841,   16360.6973,   611.738403,    1337.1814
   4842,   16373.1953,   611.738403,    1337.1814
   4843,   16385.6934,   611.738403,    1337.1814
   4844,   16398.1934,   611.738403,    1337.1814
   4845,   16410.6914,   611.738403,    1337.1814
   4846,   16423.1895,   611.738403,    1337.1814
   4847,   16435.6895,   611.738403,    1337.1814
   4848,   16448.1875,   611.738403,    1337.1814
   4849,   16460.6855,   611.738403,    1337.1814
   4850,   16473.1855,   611.738403,    1337.1814
   4851,   16485.6836,   611.738403,    1337.1814
   4852,   16498.1816,   611.738403,    1337.1814
   4853,   16510.6797,   611.738403,    1337.1814
   4854,   16523.1797,   611.738403,    1337.1814
   4855,   16535.6777,   611.738403,    1337.1814
   4856,   16548.1758,   611.738403,    1337.1814
   4857,   16560.6758,   611.738403,    1337.1814
   4858,   16573.1738,   611.738403,    1337.1814
   4859,   16585.6719,   611.738403,    1337.1814
   4860,   16598.1699,   611.738403,    1337.1814
   4861,   16610.6699,   611.738403,    1337.1814
   4862,    16623.168,   611.738403,    1337.1814
   4863,    16635.666,   611.738403,    1337.1814
   4864,    16648.166,   611.738403,    1337.1814
   4865,   16660.6641,   611.738403,    1337.1814
   4866,   16673.1621,   611.738403,    1337.1814
   4867,   16685.6621,   611.738403,    1337.1814
   4868,   16698.1602,   611.738403,    1337.1814
   4869,   16710.6582,   611.738403,    1337.1814
   4870,   16723.1562,   611.738403,    1337.1814
   4871,   16735.6562,   611.738403,    1337.1814
   4872,   16748.1543,   611.738403,    1337.1814
   4873,   16760.6523,   611.738403,    1337.1814
   4874,   16773.1523,   611.738403,    1337.1814
   4875,   16785.6504,   611.738403,    1337.1814
   4876,   16798.1484,   611.738403,    1337.1814
   4877,   16810.6465,   611.738403,    1337.1814
   4878,   16823.1465,   611.738403,    1337.1814
   4879,   16835.6445,   611.738403,    1337.1814
   4880,   16848.1426,   611.738403,    1337.1814
   4881,   16860.6426,   611.738403,    1337.1814
   4882,   16873.1406,   611.738403,    1337.1814
   4883,   16885.6387,   611.738403,    1337.1814
   4884,   16898.1387,   611.738403,    1337.1814
   4885,   15273.3164,   611.738403,    1337.1814
   4886,   15285.8154,   611.738403,    1337.1814
   4887,   15298.3145,   611.738403,    1337.1814
   4888,   15310.8125,   611.738403,    1337.1814
   4889,   15323.3115,   611.738403,    1337.1814
   4890,   15335.8096,   611.738403,    1337.1814
   4891,   15348.3086,   611.738403,    1337.1814
   4892,   15360.8076,   611.738403,    1337.1814
   4893,   15373.3057,   611.738403,    1337.1814
   4894,   15385.8047,   611.738403,    1337.1814
   4895,   15398.3027,   611.738403,    1337.1814
   4896,   15410.8018,   611.738403,    1337.1814
   4897,   15423.2998,   611.738403,    1337.1814
   4898,   15435.7988,   611.738403,    1337.1814
   4899,   15448.2979,   611.738403,    1337.1814
   4900,   15460.7959,   611.738403,    1337.1814
   4901,   15473.2949,   611.738403,    1337.1814
   4902,    15485.793,   611.738403,    1337.1814
   4903,    15498.292,   611.738403,    1337.1814
   4904,    15510.791,   611.738403,    1337.1814
   4905,   15523.2891,   611.738403,    1337.1814
   4906,   15535.7881,   611.738403,    1337.1814
   4907,   15548.2861,   611.738403,    1337.1814
   4908,   15560.7852,   611.738403,    1337.1814
   4909,   15573.2842,   611.738403,    1337.1814
   4910,   15585.7822,   611.738403,    1337.1814
   4911,   15598.2812,   611.738403,    1337.1814
   4912,   15610.7793,   611.738403,    1337.1814
   4913,   15623.2783,   611.738403,    1337.1814
   4914,   15635.7773,   611.738403,    1337.1814
   4915,   15648.2754,   611.738403,    1337.1814
   4916,   15660.7744,   611.738403,    1337.1814
   4917,   15673.2725,   611.738403,    1337.1814
   4918,   15685.7715,   611.738403,    1337.1814
   4919,   15698.2695,   611.738403,    1337.1814
   4920,   15710.7686,   611.738403,    1337.1814
   4921,   15723.2676,   611.738403,    1337.1814
   4922,   15735.7656,   611.738403,    1337.1814
   4923,   15748.2646,   611.738403,    1337.1814
   4924,   15760.7627,   611.738403,    1337.1814
   4925,   15773.2617,   611.738403,    1337.1814
   4926,   15785.7607,   611.738403,    1337.1814
   4927,   15798.2588,   611.738403,    1337.1814
   4928,   15810.7578,   611.738403,    1337.1814
   4929,   15823.2559,   611.738403,    1337.1814
   4930,   15835.7549,   611.738403,    1337.1814
   4931,   15848.2539,   611.738403,    1337.1814
   4932,    15860.752,   611.738403,    1337.1814
   4933,    15873.251,   611.738403,    1337.1814
   4934,    15885.749,   611.738403,    1337.1814
   4935,    15898.248,   611.738403,    1337.1814
   4936,   15910.7461,   611.738403,    1337.1814
   4937,   15923.2451,   611.738403,    1337.1814
   4938,   15935.7441,   611.738403,    1337.1814
   4939,   15948.2422,   611.738403,    1337.1814
   4940,   15960.7412,   611.738403,    1337.1814
   4941,   15973.2393,   611.738403,    1337.1814
   4942,   15985.7383,   611.738403,    1337.1814
   4943,   15998.2373,   611.738403,    1337.1814
   4944,   16010.7354,   611.738403,    1337.1814
   4945,   16023.2344,   611.738403,    1337.1814
   4946,   16035.7324,   611.738403,    1337.1814
   4947,   16048.2314,   611.738403,    1337.1814
   4948,   16060.7305,   611.738403,    1337.1814
   4949,   16073.2285,   611.738403,    1337.1814
   4950,   14448.4072,   611.738403,    1337.1814
   4951,   14460.9062,   611.738403,    1337.1814
   4952,   14473.4053,   611.738403,    1337.1814
   4953,   14485.9033,   611.738403,    1337.1814
   4954,   14498.4023,   611.738403,    1337.1814
   4955,   14510.9004,   611.738403,    1337.1814
   4956,   14523.3994,   611.738403,    1337.1814
   4957,   14535.8984,   611.738403,    1337.1814
   4958,   14548.3965,   611.738403,    1337.1814
   4959,   14560.8955,   611.738403,    1337.1814
   4960,   14573.3936,   611.738403,    1337.1814
   4961,   14585.8926,   611.738403,    1337.1814
   4962,   14598.3916,   611.738403,    1337.1814
   4963,   14610.8896,   611.738403,    1337.1814
   4964,   14623.3887,   611.738403,    1337.1814
   4965,   14635.8867,   611.738403,    1337.1814
   4966,   14648.3857,   611.738403,    1337.1814
   4967,   14660.8848,   611.738403,    1337.1814
   4968,   14673.3828,   611.738403,    1337.1814
   4969,   14685.8818,   611.738403,    1337.1814
   4970,   14698.3799,   611.738403,    1337.1814
   4971,   14710.8789,   611.738403,    1337.1814
   4972,    14723.377,   611.738403,    1337.1814
   4973,    14735.876,   611.738403,    1337.1814
   4974,    14748.375,   611.738403,    1337.1814
   4975,    14760.873,   611.738403,    1337.1814
   4976,   14773.3721,   611.738403,    1337.1814
   4977,   14785.8701,   611.738403,    1337.1814
   4978,   14798.3691,   611.738403,    1337.1814
   4979,   14810.8682,   611.738403,    1337.1814
   4980,   14823.3662,   611.738403,    1337.1814
   4981,   14835.8652,   611.738403,    1337.1814
   4982,   14848.3633,   611.738403,    1337.1814
   4983,   14860.8623,   611.738403,    1337.1814
   4984,   14873.3613,   611.738403,    1337.1814
   4985,   14885.8594,   611.738403,    1337.1814
   4986,   14898.3584,   611.738403,    1337.1814
   4987,   14910.8564,   611.738403,    1337.1814
   4988,   14923.3555,   611.738403,    1337.1814
   4989,   14935.8535,   611.738403,    1337.1814
   4990,   14948.3525,   611.738403,    1337.1814
   4991,   14960.8516,   611.738403,    1337.1814
   4992,   14973.3496,   611.738403,    1337.1814
   4993,   14985.8486,   611.738403,    1337.1814
   4994,   14998.3467,   611.738403,    1337.1814
   4995,   15010.8457,   611.738403,    1337.1814
   4996,   15023.3447,   611.738403,    1337.1814
   4997,   15035.8428,   611.738403,    1337.1814
   4998,   15048.3418,   611.738403,    1337.1814
   4999,   15060.8398,   611.738403,    1337.1814
   5000,   15073.3389,   611.738403,    1337.1814
   5001,   15085.8379,   611.738403,    1337.1814
   5002,   15098.3359,   611.738403,    1337.1814
   5003,    15110.835,   611.738403,    1337.1814
   5004,    15123.333,   611.738403,    1337.1814
   5005,    15135.832,   611.738403,    1337.1814
   5006,   15148.3311,   611.738403,    1337.1814
   5007,   15160.8291,   611.738403,    1337.1814
   5008,   15173.3281,   611.738403,    1337.1814
   5009,   15185.8262,   611.738403,    1337.1814
   5010,   15198.3252,   611.738403,    1337.1814
   5011,   15210.8232,   611.738403,    1337.1814
   5012,   15223.3223,   611.738403,    1337.1814
   5013,   15235.8213,   611.738403,    1337.1814
   5014,   15248.3193,   611.738403,    1337.1814
   5015,    13623.499,   611.738403,    1337.1814
   5016,   13635.9971,   611.738403,    1337.1814
   5017,   13648.4961,   611.738403,    1337.1814
   5018,   13660.9941,   611.738403,    1337.1814
   5019,   13673.4932,   611.738403,    1337.1814
   5020,   13685.9922,   611.738403,    1337.1814
   5021,   13698.4902,   611.738403,    1337.1814
   5022,   13710.9893,   611.738403,    1337.1814
   5023,   13723.4873,   611.738403,    1337.1814
   5024,   13735.9863,   611.738403,    1337.1814
   5025,   13748.4844,   611.738403,    1337.1814
   5026,   13760.9834,   611.738403,    1337.1814
   5027,   13773.4824,   611.738403,    1337.1814
   5028,   13785.9805,   611.738403,    1337.1814
   5029,   13798.4795,   611.738403,    1337.1814
   5030,   13810.9775,   611.738403,    1337.1814
   5031,   13823.4766,   611.738403,    1337.1814
   5032,   13835.9756,   611.738403,    1337.1814
   5033,   13848.4736,   611.738403,    1337.1814
   5034,   13860.9727,   611.738403,    1337.1814
   5035,   13873.4707,   611.738403,    1337.1814
   5036,   13885.9697,   611.738403,    1337.1814
   5037,   13898.4688,   611.738403,    1337.1814
   5038,   13910.9668,   611.738403,    1337.1814
   5039,   13923.4658,   611.738403,    1337.1814
   5040,   13935.9639,   611.738403,    1337.1814
   5041,   13948.4629,   611.738403,    1337.1814
   5042,   13960.9619,   611.738403,    1337.1814
   5043,     13973.46,   611.738403,    1337.1814
   5044,    13985.959,   611.738403,    1337.1814
   5045,    13998.457,   611.738403,    1337.1814
   5046,   14010.9561,   611.738403,    1337.1814
   5047,   14023.4541,   611.738403,    1337.1814
   5048,   14035.9531,   611.738403,    1337.1814
   5049,   14048.4521,   611.738403,    1337.1814
   5050,   14060.9502,   611.738403,    1337.1814
   5051,   14073.4492,   611.738403,    1337.1814
   5052,   14085.9473,   611.738403,    1337.1814
   5053,   14098.4463,   611.738403,    1337.1814
   5054,   14110.9453,   611.738403,    1337.1814
   5055,   14123.4434,   611.738403,    1337.1814
   5056,   14135.9424,   611.738403,    1337.1814
   5057,   14148.4404,   611.738403,    1337.1814
   5058,   14160.9395,   611.738403,    1337.1814
   5059,   14173.4385,   611.738403,    1337.1814
   5060,   14185.9365,   611.738403,    1337.1814
   5061,   14198.4355,   611.738403,    1337.1814
   5062,   14210.9336,   611.738403,    1337.1814
   5063,   14223.4326,   611.738403,    1337.1814
   5064,   14235.9307,   611.738403,    1337.1814
   5065,   14248.4297,   611.738403,    1337.1814
   5066,   14260.9287,   611.738403,    1337.1814
   5067,   14273.4268,   611.738403,    1337.1814
   5068,   14285.9258,   611.738403,    1337.1814
   5069,   14298.4238,   611.738403,    1337.1814
   5070,   14310.9229,   611.738403,    1337.1814
   5071,   14323.4219,   611.738403,    1337.1814
   5072,   14335.9199,   611.738403,    1337.1814
   5073,   14348.4189,   611.738403,    1337.1814
   5074,    14360.917,   611.738403,    1337.1814
   5075,    14373.416,   611.738403,    1337.1814
   5076,    14385.915,   611.738403,    1337.1814
   5077,   14398.4131,   611.738403,    1337.1814
   5078,   14410.9121,   611.738403,    1337.1814
   5079,   14423.4102,   611.738403,    1337.1814
   5080,   12798.5898,   611.738403,    1337.1814
   5081,   12811.0879,   611.738403,    1337.1814
   5082,   12823.5869,   611.738403,    1337.1814
   5083,    12836.085,   611.738403,    1337.1814
   5084,    12848.584,   611.738403,    1337.1814
   5085,    12861.083,   611.738403,    1337.1814
   5086,   12873.5811,   611.738403,    1337.1814
   5087,   12886.0801,   611.738403,    1337.1814
   5088,   12898.5781,   611.738403,    1337.1814
   5089,   12911.0771,   611.738403,    1337.1814
   5090,   12923.5762,   611.738403,    1337.1814
   5091,   12936.0742,   611.738403,    1337.1814
   5092,   12948.5732,   611.738403,    1337.1814
   5093,   12961.0713,   611.738403,    1337.1814
   5094,   12973.5703,   611.738403,    1337.1814
   5095,   12986.0693,   611.738403,    1337.1814
   5096,   12998.5674,   611.738403,    1337.1814
   5097,   13011.0664,   611.738403,    1337.1814
   5098,   13023.5645,   611.738403,    1337.1814
   5099,   13036.0635,   611.738403,    1337.1814
   5100,   13048.5615,   611.738403,    1337.1814
   5101,   13061.0605,   611.738403,    1337.1814
   5102,   13073.5596,   611.738403,    1337.1814
   5103,   13086.0576,   611.738403,    1337.1814
   5104,   13098.5566,   611.738403,    1337.1814
   5105,   13111.0547,   611.738403,    1337.1814
   5106,   13123.5537,   611.738403,    1337.1814
   5107,   13136.0527,   611.738403,    1337.1814
   5108,   13148.5508,   611.738403,    1337.1814
   5109,   13161.0498,   611.738403,    1337.1814
   5110,   13173.5479,   611.738403,    1337.1814
   5111,   13186.0469,   611.738403,    1337.1814
   5112,   13198.5459,   611.738403,    1337.1814
   5113,   13211.0439,   611.738403,    1337.1814
   5114,    13223.543,   611.738403,    1337.1814
   5115,    13236.041,   611.738403,    1337.1814
   5116,     13248.54,   611.738403,    1337.1814
   5117,   13261.0381,   611.738403,    1337.1814
   5118,   13273.5371,   611.738403,    1337.1814
   5119,   13286.0361,   611.738403,    1337.1814
   5120,   13298.5342,   611.738403,    1337.1814
   5121,   13311.0332,   611.738403,    1337.1814
   5122,   13323.5312,   611.738403,    1337.1814
   5123,   13336.0303,   611.738403,    1337.1814
   5124,   13348.5293,   611.738403,    1337.1814
   5125,   13361.0273,   611.738403,    1337.1814
   5126,   13373.5264,   611.738403,    1337.1814
   5127,   13386.0244,   611.738403,    1337.1814
   5128,   13398.5234,   611.738403,    1337.1814
   5129,   13411.0225,   611.738403,    1337.1814
   5130,   13423.5205,   611.738403,    1337.1814
   5131,   13436.0195,   611.738403,    1337.1814
   5132,   13448.5176,   611.738403,    1337.1814
   5133,   13461.0166,   611.738403,    1337.1814
   5134,   13473.5156,   611.738403,    1337.1814
   5135,   13486.0137,   611.738403,    1337.1814
   5136,   13498.5127,   611.738403,    1337.1814
   5137,   13511.0107,   611.738403,    1337.1814
   5138,   13523.5098,   611.738403,    1337.1814
   5139,   13536.0078,   611.738403,    1337.1814
   5140,   13548.5068,   611.738403,    1337.1814
   5141,   13561.0059,   611.738403,    1337.1814
   5142,   13573.5039,   611.738403,    1337.1814
   5143,   13586.0029,   611.738403,    1337.1814
   5144,    13598.501,   611.738403,    1337.1814
   5145,   11973.6807,   611.738403,    1337.1814
   5146,   11986.1787,   611.738403,    1337.1814
   5147,   11998.6777,   611.738403,    1337.1814
   5148,   12011.1768,   611.738403,    1337.1814
   5149,   12023.6748,   611.738403,    1337.1814
   5150,   12036.1738,   611.738403,    1337.1814
   5151,   12048.6719,   611.738403,    1337.1814
   5152,   12061.1709,   611.738403,    1337.1814
   5153,   12073.6689,   611.738403,    1337.1814
   5154,    12086.168,   611.738403,    1337.1814
   5155,    12098.667,   611.738403,    1337.1814
   5156,    12111.165,   611.738403,    1337.1814
   5157,   12123.6641,   611.738403,    1337.1814
   5158,   12136.1621,   611.738403,    1337.1814
   5159,   12148.6611,   611.738403,    1337.1814
   5160,   12161.1602,   611.738403,    1337.1814
   5161,   12173.6582,   611.738403,    1337.1814
   5162,   12186.1572,   611.738403,    1337.1814
   5163,   12198.6553,   611.738403,    1337.1814
   5164,   12211.1543,   611.738403,    1337.1814
   5165,   12223.6533,   611.738403,    1337.1814
   5166,   12236.1514,   611.738403,    1337.1814
   5167,   12248.6504,   611.738403,    1337.1814
   5168,   12261.1484,   611.738403,    1337.1814
   5169,   12273.6475,   611.738403,    1337.1814
   5170,   12286.1465,   611.738403,    1337.1814
   5171,   12298.6445,   611.738403,    1337.1814
   5172,   12311.1436,   611.738403,    1337.1814
   5173,   12323.6416,   611.738403,    1337.1814
   5174,   12336.1406,   611.738403,    1337.1814
   5175,   12348.6387,   611.738403,    1337.1814
   5176,   12361.1377,   611.738403,    1337.1814
   5177,   12373.6367,   611.738403,    1337.1814
   5178,   12386.1348,   611.738403,    1337.1814
   5179,   12398.6338,   611.738403,    1337.1814
   5180,   12411.1318,   611.738403,    1337.1814
   5181,   12423.6309,   611.738403,    1337.1814
   5182,   12436.1299,   611.738403,    1337.1814
   5183,   12448.6279,   611.738403,    1337.1814
   5184,    12461.127,   611.738403,    1337.1814
   5185,    12473.625,   611.738403,    1337.1814
   5186,    12486.124,   611.738403,    1337.1814
   5187,    12498.623,   611.738403,    1337.1814
   5188,   12511.1211,   611.738403,    1337.1814
   5189,   12523.6201,   611.738403,    1337.1814
   5190,   12536.1182,   611.738403,    1337.1814
   5191,   12548.6172,   611.738403,    1337.1814
   5192,   12561.1152,   611.738403,    1337.1814
   5193,   12573.6143,   611.738403,    1337.1814
   5194,   12586.1133,   611.738403,    1337.1814
   5195,   12598.6113,   611.738403,    1337.1814
   5196,   12611.1104,   611.738403,    1337.1814
   5197,   12623.6084,   611.738403,    1337.1814
   5198,   12636.1074,   611.738403,    1337.1814
   5199,   12648.6064,   611.738403,    1337.1814
   5200,   12661.1045,   611.738403,    1337.1814
   5201,   12673.6035,   611.738403,    1337.1814
   5202,   12686.1016,   611.738403,    1337.1814
   5203,   12698.6006,   611.738403,    1337.1814
   5204,   12711.0996,   611.738403,    1337.1814
   5205,   12723.5977,   611.738403,    1337.1814
   5206,   12736.0967,   611.738403,    1337.1814
   5207,   12748.5947,   611.738403,    1337.1814
   5208,   12761.0938,   611.738403,    1337.1814
   5209,   12773.5928,   611.738403,    1337.1814
   5210,   11148.7715,   611.738403,    1337.1814
   5211,   11161.2695,   611.738403,    1337.1814
   5212,   11173.7686,   611.738403,    1337.1814
   5213,   11186.2676,   611.738403,    1337.1814
   5214,   11198.7656,   611.738403,    1337.1814
   5215,   11211.2646,   611.738403,    1337.1814
   5216,   11223.7627,   611.738403,    1337.1814
   5217,   11236.2617,   611.738403,    1337.1814
   5218,   11248.7607,   611.738403,    1337.1814
   5219,   11261.2588,   611.738403,    1337.1814
   5220,   11273.7578,   611.738403,    1337.1814
   5221,   11286.2559,   611.738403,    1337.1814
   5222,   11298.7549,   611.738403,    1337.1814
   5223,   11311.2539,   611.738403,    1337.1814
   5224,    11323.752,   611.738403,    1337.1814
   5225,    11336.251,   611.738403,    1337.1814
   5226,    11348.749,   611.738403,    1337.1814
   5227,    11361.248,   611.738403,    1337.1814
   5228,   11373.7461,   611.738403,    1337.1814
   5229,   11386.2451,   611.738403,    1337.1814
   5230,   11398.7441,   611.738403,    1337.1814
   5231,   11411.2422,   611.738403,    1337.1814
   5232,   11423.7412,   611.738403,    1337.1814
   5233,   11436.2393,   611.738403,    1337.1814
   5234,   11448.7383,   611.738403,    1337.1814
   5235,   11461.2373,   611.738403,    1337.1814
   5236,   11473.7354,   611.738403,    1337.1814
   5237,   11486.2344,   611.738403,    1337.1814
   5238,   11498.7324,   611.738403,    1337.1814
   5239,   11511.2314,   611.738403,    1337.1814
   5240,   11523.7305,   611.738403,    1337.1814
   5241,   11536.2285,   611.738403,    1337.1814
   5242,   11548.7275,   611.738403,    1337.1814
   5243,   11561.2256,   611.738403,    1337.1814
   5244,   11573.7246,   611.738403,    1337.1814
   5245,   11586.2227,   611.738403,    1337.1814
   5246,   11598.7217,   611.738403,    1337.1814
   5247,   11611.2207,   611.738403,    1337.1814
   5248,   11623.7188,   611.738403,    1337.1814
   5249,   11636.2178,   611.738403,    1337.1814
   5250,   11648.7158,   611.738403,    1337.1814
   5251,   11661.2148,   611.738403,    1337.1814
   5252,   11673.7139,   611.738403,    1337.1814
   5253,   11686.2119,   611.738403,    1337.1814
   5254,   11698.7109,   611.738403,    1337.1814
   5255,    11711.209,   611.738403,    1337.1814
   5256,    11723.708,   611.738403,    1337.1814
   5257,    11736.207,   611.738403,    1337.1814
   5258,   11748.7051,   611.738403,    1337.1814
   5259,   11761.2041,   611.738403,    1337.1814
   5260,   11773.7021,   611.738403,    1337.1814
   5261,   11786.2012,   611.738403,    1337.1814
   5262,   11798.7002,   611.738403,    1337.1814
   5263,   11811.1982,   611.738403,    1337.1814
   5264,   11823.6973,   611.738403,    1337.1814
   5265,   11836.1953,   611.738403,    1337.1814
   5266,   11848.6943,   611.738403,    1337.1814
   5267,   11861.1924,   611.738403,    1337.1814
   5268,   11873.6914,   611.738403,    1337.1814
   5269,   11886.1904,   611.738403,    1337.1814
   5270,   11898.6885,   611.738403,    1337.1814
   5271,   11911.1875,   611.738403,    1337.1814
   5272,   11923.6855,   611.738403,    1337.1814
   5273,   11936.1846,   611.738403,    1337.1814
   5274,   11948.6836,   611.738403,    1337.1814
   5275,   10323.8623,   611.738403,    1337.1814
   5276,   10336.3613,   611.738403,    1337.1814
   5277,   10348.8594,   611.738403,    1337.1814
   5278,   10361.3584,   611.738403,    1337.1814
   5279,   10373.8564,   611.738403,    1337.1814
   5280,   10386.3555,   611.738403,    1337.1814
   5281,   10398.8535,   611.738403,    1337.1814
   5282,   10411.3525,   611.738403,    1337.1814
   5283,   10423.8516,   611.738403,    1337.1814
   5284,   10436.3496,   611.738403,    1337.1814
   5285,   10448.8486,   611.738403,    1337.1814
   5286,   10461.3467,   611.738403,    1337.1814
   5287,   10473.8457,   611.738403,    1337.1814
   5288,   10486.3447,   611.738403,    1337.1814
   5289,   10498.8428,   611.738403,    1337.1814
   5290,   10511.3418,   611.738403,    1337.1814
   5291,   10523.8398,   611.738403,    1337.1814
   5292,   10536.3389,   611.738403,    1337.1814
   5293,   10548.8379,   611.738403,    1337.1814
   5294,   10561.3359,   611.738403,    1337.1814
   5295,    10573.835,   611.738403,    1337.1814
   5296,    10586.333,   611.738403,    1337.1814
   5297,    10598.832,   611.738403,    1337.1814
   5298,   10611.3311,   611.738403,    1337.1814
   5299,   10623.8291,   611.738403,    1337.1814
   5300,   10636.3281,   611.738403,    1337.1814
   5301,   10648.8262,   611.738403,    1337.1814
   5302,   10661.3252,   611.738403,    1337.1814
   5303,   10673.8232,   611.738403,    1337.1814
   5304,   10686.3223,   611.738403,    1337.1814
   5305,   10698.8213,   611.738403,    1337.1814
   5306,   10711.3193,   611.738403,    1337.1814
   5307,   10723.8184,   611.738403,    1337.1814
   5308,   10736.3164,   611.738403,    1337.1814
   5309,   10748.8154,   611.738403,    1337.1814
   5310,   10761.3145,   611.738403,    1337.1814
   5311,   10773.8125,   611.738403,    1337.1814
   5312,   10786.3115,   611.738403,    1337.1814
   5313,   10798.8096,   611.738403,    1337.1814
   5314,   10811.3086,   611.738403,    1337.1814
   5315,   10823.8076,   611.738403,    1337.1814
   5316,   10836.3057,   611.738403,    1337.1814
   5317,   10848.8047,   611.738403,    1337.1814
   5318,   10861.3027,   611.738403,    1337.1814
   5319,   10873.8018,   611.738403,    1337.1814
   5320,   10886.2998,   611.738403,    1337.1814
   5321,   10898.7988,   611.738403,    1337.1814
   5322,   10911.2979,   611.738403,    1337.1814
   5323,   10923.7959,   611.738403,    1337.1814
   5324,   10936.2949,   611.738403,    1337.1814
   5325,    10948.793,   611.738403,    1337.1814
   5326,    10961.292,   611.738403,    1337.1814
   5327,    10973.791,   611.738403,    1337.1814
   5328,   10986.2891,   611.738403,    1337.1814
   5329,   10998.7881,   611.738403,    1337.1814
   5330,   11011.2861,   611.738403,    1337.1814
   5331,   11023.7852,   611.738403,    1337.1814
   5332,   11036.2842,   611.738403,    1337.1814
   5333,   11048.7822,   611.738403,    1337.1814
   5334,   11061.2812,   611.738403,    1337.1814
   5335,   11073.7793,   611.738403,    1337.1814
   5336,   11086.2783,   611.738403,    1337.1814
   5337,   11098.7773,   611.738403,    1337.1814
   5338,   11111.2754,   611.738403,    1337.1814
   5339,   11123.7744,   611.738403,    1337.1814
   5340,   9498.95312,   611.738403,    1337.1814
   5341,   9511.45215,   611.738403,    1337.1814
   5342,    9523.9502,   611.738403,    1337.1814
   5343,   9536.44922,   611.738403,    1337.1814
   5344,   9548.94727,   611.738403,    1337.1814
   5345,   9561.44629,   611.738403,    1337.1814
   5346,   9573.94531,   611.738403,    1337.1814
   5347,   9586.44336,   611.738403,    1337.1814
   5348,   9598.94238,   611.738403,    1337.1814
   5349,   9611.44043,   611.738403,    1337.1814
   5350,   9623.93945,   611.738403,    1337.1814
   5351,   9636.43848,   611.738403,    1337.1814
   5352,   9648.93652,   611.738403,    1337.1814
   5353,   9661.43555,   611.738403,    1337.1814
   5354,   9673.93359,   611.738403,    1337.1814
   5355,   9686.43262,   611.738403,    1337.1814
   5356,   9698.93066,   611.738403,    1337.1814
   5357,   9711.42969,   611.738403,    1337.1814
   5358,   9723.92871,   611.738403,    1337.1814
   5359,   9736.42676,   611.738403,    1337.1814
   5360,   9748.92578,   611.738403,    1337.1814
   5361,   9761.42383,   611.738403,    1337.1814
   5362,   9773.92285,   611.738403,    1337.1814
   5363,   9786.42188,   611.738403,    1337.1814
   5364,   9798.91992,   611.738403,    1337.1814
   5365,   9811.41895,   611.738403,    1337.1814
   5366,   9823.91699,   611.738403,    1337.1814
   5367,   9836.41602,   611.738403,    1337.1814
   5368,   9848.91504,   611.738403,    1337.1814
   5369,   9861.41309,   611.738403,    1337.1814
   5370,   9873.91211,   611.738403,    1337.1814
   5371,   9886.41016,   611.738403,    1337.1814
   5372,   9898.90918,   611.738403,    1337.1814
   5373,   9911.40723,   611.738403,    1337.1814
   5374,   9923.90625,   611.738403,    1337.1814
   5375,   9936.40527,   611.738403,    1337.1814
   5376,   9948.90332,   611.738403,    1337.1814
   5377,   9961.40234,   611.738403,    1337.1814
   5378,   9973.90039,   611.738403,    1337.1814
   5379,   9986.39941,   611.738403,    1337.1814
   5380,   9998.89844,   611.738403,    1337.1814
   5381,   10011.3965,   611.738403,    1337.1814
   5382,   10023.8955,   611.738403,    1337.1814
   5383,   10036.3936,   611.738403,    1337.1814
   5384,   10048.8926,   611.738403,    1337.1814
   5385,   10061.3916,   611.738403,    1337.1814
   5386,   10073.8896,   611.738403,    1337.1814
   5387,   10086.3887,   611.738403,    1337.1814
   5388,   10098.8867,   611.738403,    1337.1814
   5389,   10111.3857,   611.738403,    1337.1814
   5390,   10123.8848,   611.738403,    1337.1814
   5391,   10136.3828,   611.738403,    1337.1814
   5392,   10148.8818,   611.738403,    1337.1814
   5393,   10161.3799,   611.738403,    1337.1814
   5394,   10173.8789,   611.738403,    1337.1814
   5395,    10186.377,   611.738403,    1337.1814
   5396,    10198.876,   611.738403,    1337.1814
   5397,    10211.375,   611.738403,    1337.1814
   5398,    10223.873,   611.738403,    1337.1814
   5399,   10236.3721,   611.738403,    1337.1814
   5400,   10248.8701,   611.738403,    1337.1814
   5401,   10261.3691,   611.738403,    1337.1814
   5402,   10273.8682,   611.738403,    1337.1814
   5403,   10286.3662,   611.738403,    1337.1814
   5404,   10298.8652,   611.738403,    1337.1814
   5405,   9086.49902,   611.738403,    1337.1814
   5406,   9098.99707,   611.738403,    1337.1814
   5407,   9111.49609,   611.738403,    1337.1814
   5408,   9123.99414,   611.738403,    1337.1814
   5409,   9136.49316,   611.738403,    1337.1814
   5410,   9148.99219,   611.738403,    1337.1814
   5411,   9161.49023,   611.738403,    1337.1814
   5412,   9173.98926,   611.738403,    1337.1814
   5413,    9186.4873,   611.738403,    1337.1814
   5414,   9198.98633,   611.738403,    1337.1814
   5415,   9211.48438,   611.738403,    1337.1814
   5416,    9223.9834,   611.738403,    1337.1814
   5417,   9236.48242,   611.738403,    1337.1814
   5418,   9248.98047,   611.738403,    1337.1814
   5419,   9261.47949,   611.738403,    1337.1814
   5420,   9273.97754,   611.738403,    1337.1814
   5421,   9286.47656,   611.738403,    1337.1814
   5422,   9298.97559,   611.738403,    1337.1814
   5423,   9311.47363,   611.738403,    1337.1814
   5424,   9323.97266,   611.738403,    1337.1814
   5425,    9336.4707,   611.738403,    1337.1814
   5426,   9348.96973,   611.738403,    1337.1814
   5427,   9361.46875,   611.738403,    1337.1814
   5428,    9373.9668,   611.738403,    1337.1814
   5429,   9386.46582,   611.738403,    1337.1814
   5430,   9398.96387,   611.738403,    1337.1814
   5431,   9411.46289,   611.738403,    1337.1814
   5432,   9423.96191,   611.738403,    1337.1814
   5433,   9436.45996,   611.738403,    1337.1814
   5434,   9448.95898,   611.738403,    1337.1814
   5435,   9461.45703,   611.738403,    1337.1814
   5436,   9473.95605,   611.738403,    1337.1814
   5437,   8674.04395,   611.738403,    1337.1814
   5438,   8686.54297,   611.738403,    1337.1814
   5439,   8699.04102,   611.738403,    1337.1814
   5440,   8711.54004,   611.738403,    1337.1814
   5441,   8724.03809,   611.738403,    1337.1814
   5442,   8736.53711,   611.738403,    1337.1814
   5443,   8749.03613,   611.738403,    1337.1814
   5444,   8761.53418,   611.738403,    1337.1814
   5445,    8774.0332,   611.738403,    1337.1814
   5446,   8786.53125,   611.738403,    1337.1814
   5447,   8799.03027,   611.738403,    1337.1814
   5448,    8811.5293,   611.738403,    1337.1814
   5449,   8824.02734,   611.738403,    1337.1814
   5450,   8836.52637,   611.738403,    1337.1814
   5451,   8849.02441,   611.738403,    1337.1814
   5452,   8861.52344,   611.738403,    1337.1814
   5453,   8874.02246,   611.738403,    1337.1814
   5454,   8886.52051,   611.738403,    1337.1814
   5455,   8899.01953,   611.738403,    1337.1814
   5456,   8911.51758,   611.738403,    1337.1814
   5457,    8924.0166,   611.738403,    1337.1814
   5458,   8936.51562,   611.738403,    1337.1814
   5459,   8949.01367,   611.738403,    1337.1814
   5460,    8961.5127,   611.738403,    1337.1814
   5461,   8974.01074,   611.738403,    1337.1814
   5462,   8986.50977,   611.738403,    1337.1814
   5463,   8999.00781,   611.738403,    1337.1814
   5464,   9011.50684,   611.738403,    1337.1814
   5465,   9024.00586,   611.738403,    1337.1814
   5466,   9036.50391,   611.738403,    1337.1814
   5467,   9049.00293,   611.738403,    1337.1814
   5468,   9061.50098,   611.738403,    1337.1814
   5469,   7849.13477,   611.738403,    1337.1814
   5470,   7861.63379,   611.738403,    1337.1814
   5471,   7874.13232,   611.738403,    1337.1814
   5472,   7886.63086,   611.738403,    1337.1814
   5473,   7899.12939,   611.738403,    1337.1814
   5474,   7911.62793,   611.738403,    1337.1814
   5475,   7924.12695,   611.738403,    1337.1814
   5476,   7936.62549,   611.738403,    1337.1814
   5477,   7949.12402,   611.738403,    1337.1814
   5478,   7961.62256,   611.738403,    1337.1814
   5479,   7974.12109,   611.738403,    1337.1814
   5480,   7986.61963,   611.738403,    1337.1814
   5481,   7999.11865,   611.738403,    1337.1814
   5482,   8011.61719,   611.738403,    1337.1814
   5483,   8024.11572,   611.738403,    1337.1814
   5484,   8036.61426,   611.738403,    1337.1814
   5485,   8049.11279,   611.738403,    1337.1814
   5486,   8061.61133,   611.738403,    1337.1814
   5487,   8074.11035,   611.738403,    1337.1814
   5488,   8086.60889,   611.738403,    1337.1814
   5489,   8099.10742,   611.738403,    1337.1814
   5490,   8111.60596,   611.738403,    1337.1814
   5491,   8124.10449,   611.738403,    1337.1814
   5492,   8136.60352,   611.738403,    1337.1814
   5493,   8149.10205,   611.738403,    1337.1814
   5494,   8161.60059,   611.738403,    1337.1814
   5495,   8174.09912,   611.738403,    1337.1814
   5496,   8186.59766,   611.738403,    1337.1814
   5497,   8199.09668,   611.738403,    1337.1814
   5498,   8211.59473,   611.738403,    1337.1814
   5499,   8224.09375,   611.738403,    1337.1814
   5500,   8236.59277,   611.738403,    1337.1814
   5501,   8249.09082,   611.738403,    1337.1814
   5502,   8261.58984,   611.738403,    1337.1814
   5503,   8274.08789,   611.738403,    1337.1814
   5504,   8286.58691,   611.738403,    1337.1814
   5505,   8299.08496,   611.738403,    1337.1814
   5506,   8311.58398,   611.738403,    1337.1814
   5507,   8324.08301,   611.738403,    1337.1814
   5508,   8336.58105,   611.738403,    1337.1814
   5509,   8349.08008,   611.738403,    1337.1814
   5510,   8361.57812,   611.738403,    1337.1814
   5511,   8374.07715,   611.738403,    1337.1814
   5512,   8386.57617,   611.738403,    1337.1814
   5513,   8399.07422,   611.738403,    1337.1814
   5514,   8411.57324,   611.738403,    1337.1814
   5515,   8424.07129,   611.738403,    1337.1814
   5516,   8436.57031,   611.738403,    1337.1814
   5517,   8449.06934,   611.738403,    1337.1814
   5518,   8461.56738,   611.738403,    1337.1814
   5519,   8474.06641,   611.738403,    1337.1814
   5520,   8486.56445,   611.738403,    1337.1814
   5521,   8499.06348,   611.738403,    1337.1814
   5522,   8511.56152,   611.738403,    1337.1814
   5523,   8524.06055,   611.738403,    1337.1814
   5524,   8536.55957,   611.738403,    1337.1814
   5525,   8549.05762,   611.738403,    1337.1814
   5526,   8561.55664,   611.738403,    1337.1814
   5527,   8574.05469,   611.738403,    1337.1814
   5528,   8586.55371,   611.738403,    1337.1814
   5529,   8599.05273,   611.738403,    1337.1814
   5530,   8611.55078,   611.738403,    1337.1814
   5531,    8624.0498,   611.738403,    1337.1814
   5532,   8636.54785,   611.738403,    1337.1814
   5533,   8649.04688,   611.738403,    1337.1814
   5534,   7024.22607,   611.738403,    1337.1814
   5535,   7036.72461,   611.738403,    1337.1814
   5536,   7049.22314,   611.738403,    1337.1814
   5537,   7061.72168,   611.738403,    1337.1814
   5538,   7074.22021,   611.738403,    1337.1814
   5539,   7086.71924,   611.738403,    1337.1814
   5540,   7099.21777,   611.738403,    1337.1814
   5541,   7111.71631,   611.738403,    1337.1814
   5542,   7124.21484,   611.738403,    1337.1814
   5543,   7136.71338,   611.738403,    1337.1814
   5544,   7149.21191,   611.738403,    1337.1814
   5545,   7161.71094,   611.738403,    1337.1814
   5546,   7174.20947,   611.738403,    1337.1814
   5547,   7186.70801,   611.738403,    1337.1814
   5548,   7199.20654,   611.738403,    1337.1814
   5549,   7211.70508,   611.738403,    1337.1814
   5550,   7224.20361,   611.738403,    1337.1814
   5551,   7236.70264,   611.738403,    1337.1814
   5552,   7249.20117,   611.738403,    1337.1814
   5553,   7261.69971,   611.738403,    1337.1814
   5554,   7274.19824,   611.738403,    1337.1814
   5555,   7286.69678,   611.738403,    1337.1814
   5556,    7299.1958,   611.738403,    1337.1814
   5557,   7311.69434,   611.738403,    1337.1814
   5558,   7324.19287,   611.738403,    1337.1814
   5559,   7336.69141,   611.738403,    1337.1814
   5560,   7349.18994,   611.738403,    1337.1814
   5561,   7361.68848,   611.738403,    1337.1814
   5562,    7374.1875,   611.738403,    1337.1814
   5563,   7386.68604,   611.738403,    1337.1814
   5564,   7399.18457,   611.738403,    1337.1814
   5565,   7411.68311,   611.738403,    1337.1814
   5566,   7424.18164,   611.738403,    1337.1814
   5567,   7436.68066,   611.738403,    1337.1814
   5568,    7449.1792,   611.738403,    1337.1814
   5569,   7461.67773,   611.738403,    1337.1814
   5570,   7474.17627,   611.738403,    1337.1814
   5571,    7486.6748,   611.738403,    1337.1814
   5572,   7499.17334,   611.738403,    1337.1814
   5573,   7511.67236,   611.738403,    1337.1814
   5574,    7524.1709,   611.738403,    1337.1814
   5575,   7536.66943,   611.738403,    1337.1814
   5576,   7549.16797,   611.738403,    1337.1814
   5577,    7561.6665,   611.738403,    1337.1814
   5578,   7574.16553,   611.738403,    1337.1814
   5579,   7586.66406,   611.738403,    1337.1814
   5580,    7599.1626,   611.738403,    1337.1814
   5581,   7611.66113,   611.738403,    1337.1814
   5582,   7624.15967,   611.738403,    1337.1814
   5583,    7636.6582,   611.738403,    1337.1814
   5584,   7649.15723,   611.738403,    1337.1814
   5585,   7661.65576,   611.738403,    1337.1814
   5586,    7674.1543,   611.738403,    1337.1814
   5587,   7686.65283,   611.738403,    1337.1814
   5588,   7699.15137,   611.738403,    1337.1814
   5589,    7711.6499,   611.738403,    1337.1814
   5590,   7724.14893,   611.738403,    1337.1814
   5591,   7736.64746,   611.738403,    1337.1814
   5592,     7749.146,   611.738403,    1337.1814
   5593,   7761.64453,   611.738403,    1337.1814
   5594,   7774.14307,   611.738403,    1337.1814
   5595,   7786.64209,   611.738403,    1337.1814
   5596,   7799.14062,   611.738403,    1337.1814
   5597,   7811.63916,   611.738403,    1337.1814
   5598,    7824.1377,   611.738403,    1337.1814
   5599,   6199.31689,   611.738403,    1337.1814
   5600,   6211.81543,   611.738403,    1337.1814
   5601,   6224.31396,   611.738403,    1337.1814
   5602,    6236.8125,   611.738403,    1337.1814
   5603,   6249.31152,   611.738403,    1337.1814
   5604,   6261.81006,   611.738403,    1337.1814
   5605,   6274.30859,   611.738403,    1337.1814
   5606,   6286.80713,   611.738403,    1337.1814
   5607,   6299.30566,   611.738403,    1337.1814
   5608,    6311.8042,   611.738403,    1337.1814
   5609,   6324.30322,   611.738403,    1337.1814
   5610,   6336.80176,   611.738403,    1337.1814
   5611,   6349.30029,   611.738403,    1337.1814
   5612,   6361.79883,   611.738403,    1337.1814
   5613,   6374.29736,   611.738403,    1337.1814
   5614,   6386.79639,   611.738403,    1337.1814
   5615,   6399.29492,   611.738403,    1337.1814
   5616,   6411.79346,   611.738403,    1337.1814
   5617,   6424.29199,   611.738403,    1337.1814
   5618,   6436.79053,   611.738403,    1337.1814
   5619,   6449.28906,   611.738403,    1337.1814
   5620,   6461.78809,   611.738403,    1337.1814
   5621,   6474.28662,   611.738403,    1337.1814
   5622,   6486.78516,   611.738403,    1337.1814
   5623,   6499.28369,   611.738403,    1337.1814
   5624,   6511.78223,   611.738403,    1337.1814
   5625,   6524.28076,   611.738403,    1337.1814
   5626,   6536.77979,   611.738403,    1337.1814
   5627,   6549.27832,   611.738403,    1337.1814
   5628,   6561.77686,   611.738403,    1337.1814
   5629,   6574.27539,   611.738403,    1337.1814
   5630,   6586.77393,   611.738403,    1337.1814
   5631,   6599.27295,   611.738403,    1337.1814
   5632,   6611.77148,   611.738403,    1337.1814
   5633,   6624.27002,   611.738403,    1337.1814
   5634,   6636.76855,   611.738403,    1337.1814
   5635,   6649.26709,   611.738403,    1337.1814
   5636,   6661.76562,   611.738403,    1337.1814
   5637,   6674.26465,   611.738403,    1337.1814
   5638,   6686.76318,   611.738403,    1337.1814
   5639,   6699.26172,   611.738403,    1337.1814
   5640,   6711.76025,   611.738403,    1337.1814
   5641,   6724.25879,   611.738403,    1337.1814
   5642,   6736.75781,   611.738403,    1337.1814
   5643,   6749.25635,   611.738403,    1337.1814
   5644,   6761.75488,   611.738403,    1337.1814
   5645,   6774.25342,   611.738403,    1337.1814
   5646,   6786.75195,   611.738403,    1337.1814
   5647,   6799.25049,   611.738403,    1337.1814
   5648,   6811.74951,   611.738403,    1337.1814
   5649,   6824.24805,   611.738403,    1337.1814
   5650,   6836.74658,   611.738403,    1337.1814
   5651,   6849.24512,   611.738403,    1337.1814
   5652,   6861.74365,   611.738403,    1337.1814
   5653,   6874.24219,   611.738403,    1337.1814
   5654,   6886.74121,   611.738403,    1337.1814
   5655,   6899.23975,   611.738403,    1337.1814
   5656,   6911.73828,   611.738403,    1337.1814
   5657,   6924.23682,   611.738403,    1337.1814
   5658,   6936.73535,   611.738403,    1337.1814
   5659,   6949.23438,   611.738403,    1337.1814
   5660,   6961.73291,   611.738403,    1337.1814
   5661,   6974.23145,   611.738403,    1337.1814
   5662,   6986.72998,   611.738403,    1337.1814
   5663,   6999.22852,   611.738403,    1337.1814
   5664,   5374.40771,   611.738403,    1337.1814
   5665,   5386.90625,   611.738403,    1337.1814
   5666,   5399.40479,   611.738403,    1337.1814
   5667,   5411.90381,   611.738403,    1337.1814
   5668,   5424.40234,   611.738403,    1337.1814
   5669,   5436.90088,   611.738403,    1337.1814
   5670,   5449.39941,   611.738403,    1337.1814
   5671,   5461.89795,   611.738403,    1337.1814
   5672,   5474.39648,   611.738403,    1337.1814
   5673,   5486.89551,   611.738403,    1337.1814
   5674,   5499.39404,   611.738403,    1337.1814
   5675,   5511.89258,   611.738403,    1337.1814
   5676,   5524.39111,   611.738403,    1337.1814
   5677,   5536.88965,   611.738403,    1337.1814
   5678,   5549.38867,   611.738403,    1337.1814
   5679,   5561.88721,   611.738403,    1337.1814
   5680,   5574.38574,   611.738403,    1337.1814
   5681,   5586.88428,   611.738403,    1337.1814
   5682,   5599.38281,   611.738403,    1337.1814
   5683,   5611.88135,   611.738403,    1337.1814
   5684,   5624.38037,   611.738403,    1337.1814
   5685,   5636.87891,   611.738403,    1337.1814
   5686,   5649.37744,   611.738403,    1337.1814
   5687,   5661.87598,   611.738403,    1337.1814
   5688,   5674.37451,   611.738403,    1337.1814
   5689,   5686.87305,   611.738403,    1337.1814
   5690,   5699.37207,   611.738403,    1337.1814
   5691,   5711.87061,   611.738403,    1337.1814
   5692,   5724.36914,   611.738403,    1337.1814
   5693,   5736.86768,   611.738403,    1337.1814
   5694,   5749.36621,   611.738403,    1337.1814
   5695,   5761.86523,   611.738403,    1337.1814
   5696,   5774.36377,   611.738403,    1337.1814
   5697,    5786.8623,   611.738403,    1337.1814
   5698,   5799.36084,   611.738403,    1337.1814
   5699,   5811.85938,   611.738403,    1337.1814
   5700,   5824.35791,   611.738403,    1337.1814
   5701,   5836.85693,   611.738403,    1337.1814
   5702,   5849.35547,   611.738403,    1337.1814
   5703,     5861.854,   611.738403,    1337.1814
   5704,   5874.35254,   611.738403,    1337.1814
   5705,   5886.85107,   611.738403,    1337.1814
   5706,    5899.3501,   611.738403,    1337.1814
   5707,   5911.84863,   611.738403,    1337.1814
   5708,   5924.34717,   611.738403,    1337.1814
   5709,    5936.8457,   611.738403,    1337.1814
   5710,   5949.34424,   611.738403,    1337.1814
   5711,   5961.84277,   611.738403,    1337.1814
   5712,    5974.3418,   611.738403,    1337.1814
   5713,   5986.84033,   611.738403,    1337.1814
   5714,   5999.33887,   611.738403,    1337.1814
   5715,    6011.8374,   611.738403,    1337.1814
   5716,   6024.33594,   611.738403,    1337.1814
   5717,   6036.83447,   611.738403,    1337.1814
   5718,    6049.3335,   611.738403,    1337.1814
   5719,   6061.83203,   611.738403,    1337.1814
   5720,   6074.33057,   611.738403,    1337.1814
   5721,    6086.8291,   611.738403,    1337.1814
   5722,   6099.32764,   611.738403,    1337.1814
   5723,   6111.82666,   611.738403,    1337.1814
   5724,    6124.3252,   611.738403,    1337.1814
   5725,   6136.82373,   611.738403,    1337.1814
   5726,   6149.32227,   611.738403,    1337.1814
   5727,    6161.8208,   611.738403,    1337.1814
   5728,   6174.31934,   611.738403,    1337.1814
   5729,   4549.49854,   611.738403,    1337.1814
   5730,   4561.99707,   611.738403,    1337.1814
   5731,   4574.49609,   611.738403,    1337.1814
   5732,   4586.99463,   611.738403,    1337.1814
   5733,   4599.49316,   611.738403,    1337.1814
   5734,    4611.9917,   611.738403,    1337.1814
   5735,   4624.49023,   611.738403,    1337.1814
   5736,   4636.98877,   611.738403,    1337.1814
   5737,   4649.48779,   611.738403,    1337.1814
   5738,   4661.98633,   611.738403,    1337.1814
   5739,   4674.48486,   611.738403,    1337.1814
   5740,    4686.9834,   611.738403,    1337.1814
   5741,   4699.48193,   611.738403,    1337.1814
   5742,   4711.98096,   611.738403,    1337.1814
   5743,   4724.47949,   611.738403,    1337.1814
   5744,   4736.97803,   611.738403,    1337.1814
   5745,   4749.47656,   611.738403,    1337.1814
   5746,    4761.9751,   611.738403,    1337.1814
   5747,   4774.47363,   611.738403,    1337.1814
   5748,   4786.97266,   611.738403,    1337.1814
   5749,   4799.47119,   611.738403,    1337.1814
   5750,   4811.96973,   611.738403,    1337.1814
   5751,   4824.46826,   611.738403,    1337.1814
   5752,    4836.9668,   611.738403,    1337.1814
   5753,   4849.46533,   611.738403,    1337.1814
   5754,   4861.96436,   611.738403,    1337.1814
   5755,   4874.46289,   611.738403,    1337.1814
   5756,   4886.96143,   611.738403,    1337.1814
   5757,   4899.45996,   611.738403,    1337.1814
   5758,    4911.9585,   611.738403,    1337.1814
   5759,   4924.45752,   611.738403,    1337.1814
   5760,   4936.95605,   611.738403,    1337.1814
   5761,   4949.45459,   611.738403,    1337.1814
   5762,   4961.95312,   611.738403,    1337.1814
   5763,   4974.45166,   611.738403,    1337.1814
   5764,    4986.9502,   611.738403,    1337.1814
   5765,   4999.44922,   611.738403,    1337.1814
   5766,   5011.94775,   611.738403,    1337.1814
   5767,   5024.44629,   611.738403,    1337.1814
   5768,   5036.94482,   611.738403,    1337.1814
   5769,   5049.44336,   611.738403,    1337.1814
   5770,   5061.94238,   611.738403,    1337.1814
   5771,   5074.44092,   611.738403,    1337.1814
   5772,   5086.93945,   611.738403,    1337.1814
   5773,   5099.43799,   611.738403,    1337.1814
   5774,   5111.93652,   611.738403,    1337.1814
   5775,   5124.43506,   611.738403,    1337.1814
   5776,   5136.93408,   611.738403,    1337.1814
   5777,   5149.43262,   611.738403,    1337.1814
   5778,   5161.93115,   611.738403,    1337.1814
   5779,   5174.42969,   611.738403,    1337.1814
   5780,   5186.92822,   611.738403,    1337.1814
   5781,   5199.42676,   611.738403,    1337.1814
   5782,   5211.92578,   611.738403,    1337.1814
   5783,   5224.42432,   611.738403,    1337.1814
   5784,   5236.92285,   611.738403,    1337.1814
   5785,   5249.42139,   611.738403,    1337.1814
   5786,   5261.91992,   611.738403,    1337.1814
   5787,   5274.41895,   611.738403,    1337.1814
   5788,   5286.91748,   611.738403,    1337.1814
   5789,   5299.41602,   611.738403,    1337.1814
   5790,   5311.91455,   611.738403,    1337.1814
   5791,   5324.41309,   611.738403,    1337.1814
   5792,   5336.91162,   611.738403,    1337.1814
   5793,   5349.41064,   611.738403,    1337.1814
   5794,    3724.5896,   611.738403,    1337.1814
   5795,   3737.08813,   611.738403,    1337.1814
   5796,   3749.58667,   611.738403,    1337.1814
   5797,   3762.08545,   611.738403,    1337.1814
   5798,   3774.58398,   611.738403,    1337.1814
   5799,   3787.08276,   611.738403,    1337.1814
   5800,    3799.5813,   611.738403,    1337.1814
   5801,   3812.07983,   611.738403,    1337.1814
   5802,   3824.57861,   611.738403,    1337.1814
   5803,   3837.07715,   611.738403,    1337.1814
   5804,   3849.57568,   611.738403,    1337.1814
   5805,   3862.07446,   611.738403,    1337.1814
   5806,     3874.573,   611.738403,    1337.1814
   5807,   3887.07153,   611.738403,    1337.1814
   5808,   3899.57031,   611.738403,    1337.1814
   5809,   3912.06885,   611.738403,    1337.1814
   5810,   3924.56738,   611.738403,    1337.1814
   5811,   3937.06616,   611.738403,    1337.1814
   5812,    3949.5647,   611.738403,    1337.1814
   5813,   3962.06348,   611.738403,    1337.1814
   5814,   3974.56201,   611.738403,    1337.1814
   5815,   3987.06055,   611.738403,    1337.1814
   5816,   3999.55933,   611.738403,    1337.1814
   5817,   4012.05786,   611.738403,    1337.1814
   5818,    4024.5564,   611.738403,    1337.1814
   5819,   4037.05518,   611.738403,    1337.1814
   5820,   4049.55371,   611.738403,    1337.1814
   5821,   4062.05225,   611.738403,    1337.1814
   5822,   4074.55103,   611.738403,    1337.1814
   5823,   4087.04956,   611.738403,    1337.1814
   5824,   4099.54834,   611.738403,    1337.1814
   5825,   4112.04688,   611.738403,    1337.1814
   5826,   4124.54541,   611.738403,    1337.1814
   5827,   4137.04395,   611.738403,    1337.1814
   5828,   4149.54248,   611.738403,    1337.1814
   5829,    4162.0415,   611.738403,    1337.1814
   5830,   4174.54004,   611.738403,    1337.1814
   5831,   4187.03857,   611.738403,    1337.1814
   5832,   4199.53711,   611.738403,    1337.1814
   5833,   4212.03564,   611.738403,    1337.1814
   5834,   4224.53467,   611.738403,    1337.1814
   5835,    4237.0332,   611.738403,    1337.1814
   5836,   4249.53174,   611.738403,    1337.1814
   5837,   4262.03027,   611.738403,    1337.1814
   5838,   4274.52881,   611.738403,    1337.1814
   5839,   4287.02734,   611.738403,    1337.1814
   5840,   4299.52637,   611.738403,    1337.1814
   5841,    4312.0249,   611.738403,    1337.1814
   5842,   4324.52344,   611.738403,    1337.1814
   5843,   4337.02197,   611.738403,    1337.1814
   5844,   4349.52051,   611.738403,    1337.1814
   5845,   4362.01904,   611.738403,    1337.1814
   5846,   4374.51807,   611.738403,    1337.1814
   5847,    4387.0166,   611.738403,    1337.1814
   5848,   4399.51514,   611.738403,    1337.1814
   5849,   4412.01367,   611.738403,    1337.1814
   5850,   4424.51221,   611.738403,    1337.1814
   5851,   4437.01123,   611.738403,    1337.1814
   5852,   4449.50977,   611.738403,    1337.1814
   5853,    4462.0083,   611.738403,    1337.1814
   5854,   4474.50684,   611.738403,    1337.1814
   5855,   4487.00537,   611.738403,    1337.1814
   5856,   4499.50391,   611.738403,    1337.1814
   5857,   4512.00293,   611.738403,    1337.1814
   5858,   4524.50146,   611.738403,    1337.1814
   5859,   2899.68042,   611.738403,    1337.1814
   5860,   2912.17896,   611.738403,    1337.1814
   5861,   2924.67773,   611.738403,    1337.1814
   5862,   2937.17627,   611.738403,    1337.1814
   5863,   2949.67505,   611.738403,    1337.1814
   5864,   2962.17358,   611.738403,    1337.1814
   5865,   2974.67212,   611.738403,    1337.1814
   5866,    2987.1709,   611.738403,    1337.1814
   5867,   2999.66943,   611.738403,    1337.1814
   5868,   3012.16797,   611.738403,    1337.1814
   5869,   3024.66675,   611.738403,    1337.1814
   5870,   3037.16528,   611.738403,    1337.1814
   5871,   3049.66382,   611.738403,    1337.1814
   5872,    3062.1626,   611.738403,    1337.1814
   5873,   3074.66113,   611.738403,    1337.1814
   5874,   3087.15967,   611.738403,    1337.1814
   5875,   3099.65845,   611.738403,    1337.1814
   5876,   3112.15698,   611.738403,    1337.1814
   5877,   3124.65576,   611.738403,    1337.1814
   5878,    3137.1543,   611.738403,    1337.1814
   5879,   3149.65283,   611.738403,    1337.1814
   5880,   3162.15161,   611.738403,    1337.1814
   5881,   3174.65015,   611.738403,    1337.1814
   5882,   3187.14868,   611.738403,    1337.1814
   5883,   3199.64746,   611.738403,    1337.1814
   5884,     3212.146,   611.738403,    1337.1814
   5885,   3224.64453,   611.738403,    1337.1814
   5886,   3237.14331,   611.738403,    1337.1814
   5887,   3249.64185,   611.738403,    1337.1814
   5888,   3262.14038,   611.738403,    1337.1814
   5889,   3274.63916,   611.738403,    1337.1814
   5890,    3287.1377,   611.738403,    1337.1814
   5891,   3299.63647,   611.738403,    1337.1814
   5892,   3312.13501,   611.738403,    1337.1814
   5893,   3324.63354,   611.738403,    1337.1814
   5894,   3337.13232,   611.738403,    1337.1814
   5895,   3349.63086,   611.738403,    1337.1814
   5896,   3362.12939,   611.738403,    1337.1814
   5897,   3374.62817,   611.738403,    1337.1814
   5898,   3387.12671,   611.738403,    1337.1814
   5899,   3399.62524,   611.738403,    1337.1814
   5900,   3412.12402,   611.738403,    1337.1814
   5901,   3424.62256,   611.738403,    1337.1814
   5902,   3437.12109,   611.738403,    1337.1814
   5903,   3449.61987,   611.738403,    1337.1814
   5904,   3462.11841,   611.738403,    1337.1814
   5905,   3474.61719,   611.738403,    1337.1814
   5906,   3487.11572,   611.738403,    1337.1814
   5907,   3499.61426,   611.738403,    1337.1814
   5908,   3512.11304,   611.738403,    1337.1814
   5909,   3524.61157,   611.738403,    1337.1814
   5910,   3537.11011,   611.738403,    1337.1814
   5911,   3549.60889,   611.738403,    1337.1814
   5912,   3562.10742,   611.738403,    1337.1814
   5913,   3574.60596,   611.738403,    1337.1814
   5914,   3587.10474,   611.738403,    1337.1814
   5915,   3599.60327,   611.738403,    1337.1814
   5916,   3612.10181,   611.738403,    1337.1814
   5917,   3624.60059,   611.738403,    1337.1814
   5918,   3637.09912,   611.738403,    1337.1814
   5919,    3649.5979,   611.738403,    1337.1814
   5920,   3662.09644,   611.738403,    1337.1814
   5921,   3674.59497,   611.738403,    1337.1814
   5922,   3687.09375,   611.738403,    1337.1814
   5923,   3699.59229,   611.738403,    1337.1814
   5924,   2074.77124,   611.738403,    1337.1814
   5925,   2087.27002,   611.738403,    1337.1814
   5926,   2099.76855,   611.738403,    1337.1814
   5927,   2112.26733,   611.738403,    1337.1814
   5928,   2124.76587,   611.738403,    1337.1814
   5929,    2137.2644,   611.738403,    1337.1814
   5930,   2149.76318,   611.738403,    1337.1814
   5931,   2162.26172,   611.738403,    1337.1814
   5932,   2174.76025,   611.738403,    1337.1814
   5933,   2187.25903,   611.738403,    1337.1814
   5934,   2199.75757,   611.738403,    1337.1814
   5935,    2212.2561,   611.738403,    1337.1814
   5936,   2224.75488,   611.738403,    1337.1814
   5937,   2237.25342,   611.738403,    1337.1814
   5938,   2249.75195,   611.738403,    1337.1814
   5939,   2262.25073,   611.738403,    1337.1814
   5940,   2274.74927,   611.738403,    1337.1814
   5941,   2287.24805,   611.738403,    1337.1814
   5942,   2299.74658,   611.738403,    1337.1814
   5943,   2312.24512,   611.738403,    1337.1814
   5944,    2324.7439,   611.738403,    1337.1814
   5945,   2337.24243,   611.738403,    1337.1814
   5946,   2349.74097,   611.738403,    1337.1814
   5947,   2362.23975,   611.738403,    1337.1814
   5948,   2374.73828,   611.738403,    1337.1814
   5949,   2387.23682,   611.738403,    1337.1814
   5950,    2399.7356,   611.738403,    1337.1814
   5951,   2412.23413,   611.738403,    1337.1814
   5952,   2424.73267,   611.738403,    1337.1814
   5953,   2437.23145,   611.738403,    1337.1814
   5954,   2449.72998,   611.738403,    1337.1814
   5955,   2462.22876,   611.738403,    1337.1814
   5956,   2474.72729,   611.738403,    1337.1814
   5957,   2487.22583,   611.738403,    1337.1814
   5958,   2499.72461,   611.738403,    1337.1814
   5959,   2512.22314,   611.738403,    1337.1814
   5960,   2524.72168,   611.738403,    1337.1814
   5961,   2537.22046,   611.738403,    1337.1814
   5962,   2549.71899,   611.738403,    1337.1814
   5963,   2562.21753,   611.738403,    1337.1814
   5964,   2574.71631,   611.738403,    1337.1814
   5965,   2587.21484,   611.738403,    1337.1814
   5966,   2599.71338,   611.738403,    1337.1814
   5967,   2612.21216,   611.738403,    1337.1814
   5968,   2624.71069,   611.738403,    1337.1814
   5969,   2637.20947,   611.738403,    1337.1814
   5970,   2649.70801,   611.738403,    1337.1814
   5971,   2662.20654,   611.738403,    1337.1814
   5972,   2674.70532,   611.738403,    1337.1814
   5973,   2687.20386,   611.738403,    1337.1814
   5974,   2699.70239,   611.738403,    1337.1814
   5975,   2712.20117,   611.738403,    1337.1814
   5976,   2724.69971,   611.738403,    1337.1814
   5977,   2737.19824,   611.738403,    1337.1814
   5978,   2749.69702,   611.738403,    1337.1814
   5979,   2762.19556,   611.738403,    1337.1814
   5980,   2774.69434,   611.738403,    1337.1814
   5981,   2787.19287,   611.738403,    1337.1814
   5982,   2799.69141,   611.738403,    1337.1814
   5983,   2812.19019,   611.738403,    1337.1814
   5984,   2824.68872,   611.738403,    1337.1814
   5985,   2837.18726,   611.738403,    1337.1814
   5986,   2849.68604,   611.738403,    1337.1814
   5987,   2862.18457,   611.738403,    1337.1814
   5988,   2874.68311,   611.738403,    1337.1814
   5989,    1249.8623,   611.738403,    1337.1814
   5990,   1262.36084,   611.738403,    1337.1814
   5991,    1274.8595,   611.738403,    1337.1814
   5992,   1287.35815,   611.738403,    1337.1814
   5993,   1299.85669,   611.738403,    1337.1814
   5994,   1312.35535,   611.738403,    1337.1814
   5995,     1324.854,   611.738403,    1337.1814
   5996,   1337.35266,   611.738403,    1337.1814
   5997,    1349.8512,   611.738403,    1337.1814
   5998,   1362.34985,   611.738403,    1337.1814
   5999,   1374.84851,   611.738403,    1337.1814
   6000,   1387.34717,   611.738403,    1337.1814
   6001,    1399.8457,   611.738403,    1337.1814
   6002,   1412.34436,   611.738403,    1337.1814
   6003,   1424.84302,   611.738403,    1337.1814
   6004,   1437.34155,   611.738403,    1337.1814
   6005,   1449.84021,   611.738403,    1337.1814
   6006,   1462.33887,   611.738403,    1337.1814
   6007,   1474.83752,   611.738403,    1337.1814
   6008,   1487.33606,   611.738403,    1337.1814
   6009,   1499.83472,   611.738403,    1337.1814
   6010,   1512.33337,   611.738403,    1337.1814
   6011,   1524.83191,   611.738403,    1337.1814
   6012,   1537.33057,   611.738403,    1337.1814
   6013,   1549.82922,   611.738403,    1337.1814
   6014,   1562.32788,   611.738403,    1337.1814
   6015,   1574.82642,   611.738403,    1337.1814
   6016,   1587.32507,   611.738403,    1337.1814
   6017,   1599.82373,   611.738403,    1337.1814
   6018,   1612.32227,   611.738403,    1337.1814
   6019,   1624.82092,   611.738403,    1337.1814
   6020,   1637.31958,   611.738403,    1337.1814
   6021,   1649.81824,   611.738403,    1337.1814
   6022,   1662.31677,   611.738403,    1337.1814
   6023,   1674.81543,   611.738403,    1337.1814
   6024,   1687.31409,   611.738403,    1337.1814
   6025,   1699.81262,   611.738403,    1337.1814
   6026,   1712.31128,   611.738403,    1337.1814
   6027,   1724.80994,   611.738403,    1337.1814
   6028,   1737.30859,   611.738403,    1337.1814
   6029,   1749.80713,   611.738403,    1337.1814
   6030,   1762.30579,   611.738403,    1337.1814
   6031,   1774.80444,   611.738403,    1337.1814
   6032,   1787.30298,   611.738403,    1337.1814
   6033,   1799.80164,   611.738403,    1337.1814
   6034,   1812.30029,   611.738403,    1337.1814
   6035,   1824.79895,   611.738403,    1337.1814
   6036,   1837.29749,   611.738403,    1337.1814
   6037,   1849.79614,   611.738403,    1337.1814
   6038,    1862.2948,   611.738403,    1337.1814
   6039,   1874.79333,   611.738403,    1337.1814
   6040,   1887.29199,   611.738403,    1337.1814
   6041,   1899.79065,   611.738403,    1337.1814
   6042,   1912.28931,   611.738403,    1337.1814
   6043,   1924.78784,   611.738403,    1337.1814
   6044,    1937.2865,   611.738403,    1337.1814
   6045,   1949.78516,   611.738403,    1337.1814
   6046,   1962.28369,   611.738403,    1337.1814
   6047,   1974.78235,   611.738403,    1337.1814
   6048,   1987.28101,   611.738403,    1337.1814
   6049,   1999.77966,   611.738403,    1337.1814
   6050,    2012.2782,   611.738403,    1337.1814
   6051,   2024.77686,   611.738403,    1337.1814
   6052,   2037.27551,   611.738403,    1337.1814
   6053,   2049.77417,   611.738403,    1337.1814
   6054,   424.953156,   611.738403,    1337.1814
   6055,   437.451782,   611.738403,    1337.1814
   6056,   449.950409,   611.738403,    1337.1814
   6057,   462.449036,   611.738403,    1337.1814
   6058,   474.947662,   611.738403,    1337.1814
   6059,   487.446289,   611.738403,    1337.1814
   6060,   499.944916,   611.738403,    1337.1814
   6061,   512.443542,   611.738403,    1337.1814
   6062,   524.942139,   611.738403,    1337.1814
   6063,   537.440796,   611.738403,    1337.1814
   6064,   549.939392,   611.738403,    1337.1814
   6065,   562.437988,   611.738403,    1337.1814
   6066,   574.936646,   611.738403,    1337.1814
   6067,   587.435242,   611.738403,    1337.1814
   6068,   599.933899,   611.738403,    1337.1814
   6069,   612.432495,   611.738403,    1337.1814
   6070,   624.931152,   611.738403,    1337.1814
   6071,   637.429749,   611.738403,    1337.1814
   6072,   649.928345,   611.738403,    1337.1814
   6073,   662.427002,   611.738403,    1337.1814
   6074,   674.925598,   611.738403,    1337.1814
   6075,   687.424255,   611.738403,    1337.1814
   6076,   699.922852,   611.738403,    1337.1814
   6077,   712.421509,   611.738403,    1337.1814
   6078,   724.920105,   611.738403,    1337.1814
   6079,   737.418762,   611.738403,    1337.1814
   6080,   749.917358,   611.738403,    1337.1814
   6081,   762.415955,   611.738403,    1337.1814
   6082,   774.914612,   611.738403,    1337.1814
   6083,   787.413208,   611.738403,    1337.1814
   6084,   799.911865,   611.738403,    1337.1814
   6085,   812.410461,   611.738403,    1337.1814
   6086,   824.909119,   611.738403,    1337.1814
   6087,   837.407715,   611.738403,    1337.1814
   6088,   849.906311,   611.738403,    1337.1814
   6089,   862.404968,   611.738403,    1337.1814
   6090,   874.903564,   611.738403,    1337.1814
   6091,   887.402222,   611.738403,    1337.1814
   6092,   899.900818,   611.738403,    1337.1814
   6093,   912.399475,   611.738403,    1337.1814
   6094,   924.898071,   611.738403,    1337.1814
   6095,   937.396667,   611.738403,    1337.1814
   6096,   949.895325,   611.738403,    1337.1814
   6097,   962.393921,   611.738403,    1337.1814
   6098,   974.892578,   611.738403,    1337.1814
   6099,   987.391174,   611.738403,    1337.1814
   6100,   999.889832,   611.738403,    1337.1814
   6101,   1012.38843,   611.738403,    1337.1814
   6102,   1024.88708,   611.738403,    1337.1814
   6103,   1037.38562,   611.738403,    1337.1814
   6104,   1049.88428,   611.738403,    1337.1814
   6105,   1062.38293,   611.738403,    1337.1814
   6106,   1074.88159,   611.738403,    1337.1814
   6107,   1087.38013,   611.738403,    1337.1814
   6108,   1099.87878,   611.738403,    1337.1814
   6109,   1112.37744,   611.738403,    1337.1814
   6110,   1124.87598,   611.738403,    1337.1814
   6111,   1137.37463,   611.738403,    1337.1814
   6112,   1149.87329,   611.738403,    1337.1814
   6113,   1162.37195,   611.738403,    1337.1814
   6114,   1174.87048,   611.738403,    1337.1814
   6115,   1187.36914,   611.738403,    1337.1814
   6116,    1199.8678,   611.738403,    1337.1814
   6117,   1212.36633,   611.738403,    1337.1814
   6118,   1224.86499,   611.738403,    1337.1814
   6119,   12.4986229,   611.738403,    1337.1814
   6120,   24.9972458,   611.738403,    1337.1814
   6121,   37.4958687,   611.738403,    1337.1814
   6122,   49.9944916,   611.738403,    1337.1814
   6123,   62.4931145,   611.738403,    1337.1814
   6124,   74.9917374,   611.738403,    1337.1814
   6125,   87.4903564,   611.738403,    1337.1814
   6126,   99.9889832,   611.738403,    1337.1814
   6127,   112.487602,   611.738403,    1337.1814
   6128,   124.986229,   611.738403,    1337.1814
   6129,   137.484848,   611.738403,    1337.1814
   6130,   149.983475,   611.738403,    1337.1814
   6131,   162.482086,   611.738403,    1337.1814
   6132,   174.980713,   611.738403,    1337.1814
   6133,    187.47934,   611.738403,    1337.1814
   6134,   199.977966,   611.738403,    1337.1814
   6135,   212.476578,   611.738403,    1337.1814
   6136,   224.975204,   611.738403,    1337.1814
   6137,   237.473831,   611.738403,    1337.1814
   6138,   249.972458,   611.738403,    1337.1814
   6139,   262.471069,   611.738403,    1337.1814
   6140,   274.969696,   611.738403,    1337.1814
   6141,   287.468323,   611.738403,    1337.1814
   6142,   299.966949,   611.738403,    1337.1814
   6143,   312.465576,   611.738403,    1337.1814
   6144,   324.964172,   611.738403,    1337.1814
   6145,   337.462799,   611.738403,    1337.1814
   6146,   349.961426,   611.738403,    1337.1814
   6147,   362.460052,   611.738403,    1337.1814
   6148,   374.958679,   611.738403,    1337.1814
   6149,   387.457306,   611.738403,    1337.1814
   6150,   399.955933,   611.738403,    1337.1814
   6151,       18148.,           0.,        939.5
   6152,       18148.,           0.,         952.
   6153,       18148.,           0.,        964.5
   6154,       18148.,           0.,         977.
   6155,       18148.,           0.,        989.5
   6156,       18148.,           0.,        1002.
   6157,       18148.,           0.,       1014.5
   6158,       18148.,           0.,        1027.
   6159,       18148.,           0.,       1039.5
   6160,       18148.,           0.,   12.5270271
   6161,       18148.,           0.,   25.0540543
   6162,       18148.,           0.,   37.5810814
   6163,       18148.,           0.,   50.1081085
   6164,       18148.,           0.,   62.6351357
   6165,       18148.,           0.,   75.1621628
   6166,       18148.,           0.,   87.6891861
   6167,       18148.,           0.,   100.216217
   6168,       18148.,           0.,    112.74324
   6169,       18148.,           0.,   125.270271
   6170,       18148.,           0.,   137.797302
   6171,       18148.,           0.,   150.324326
   6172,       18148.,           0.,   162.851349
   6173,       18148.,           0.,   175.378372
   6174,       18148.,           0.,   187.905411
   6175,       18148.,           0.,   200.432434
   6176,       18148.,           0.,   212.959457
   6177,       18148.,           0.,   225.486481
   6178,       18148.,           0.,   238.013519
   6179,       18148.,           0.,   250.540543
   6180,       18148.,           0.,   263.067566
   6181,       18148.,           0.,   275.594604
   6182,       18148.,           0.,   288.121613
   6183,       18148.,           0.,   300.648651
   6184,       18148.,           0.,    313.17569
   6185,       18148.,           0.,   325.702698
   6186,       18148.,           0.,   338.229736
   6187,       18148.,           0.,   350.756744
   6188,       18148.,           0.,   363.283783
   6189,       18148.,           0.,   375.810822
   6190,       18148.,           0.,    388.33783
   6191,       18148.,           0.,   400.864868
   6192,       18148.,           0.,   413.391907
   6193,       18148.,           0.,   425.918915
   6194,       18148.,           0.,   438.445953
   6195,       18148.,           0.,   450.972961
   6196,       18148.,           0.,        463.5
   6197,       18148.,           0.,   476.027039
   6198,       18148.,           0.,   488.554047
   6199,       18148.,           0.,   501.081085
   6200,       18148.,           0.,   513.608093
   6201,       18148.,           0.,   526.135132
   6202,       18148.,           0.,    538.66217
   6203,       18148.,           0.,   551.189209
   6204,       18148.,           0.,   563.716187
   6205,       18148.,           0.,   576.243225
   6206,       18148.,           0.,   588.770264
   6207,       18148.,           0.,   601.297302
   6208,       18148.,           0.,   613.824341
   6209,       18148.,           0.,   626.351379
   6210,       18148.,           0.,   638.878357
   6211,       18148.,           0.,   651.405396
   6212,       18148.,           0.,   663.932434
   6213,       18148.,           0.,   676.459473
   6214,       18148.,           0.,   688.986511
   6215,       18148.,           0.,   701.513489
   6216,       18148.,           0.,   714.040527
   6217,       18148.,           0.,   726.567566
   6218,       18148.,           0.,   739.094604
   6219,       18148.,           0.,   751.621643
   6220,       18148.,           0.,   764.148621
   6221,       18148.,           0.,   776.675659
   6222,       18148.,           0.,   789.202698
   6223,       18148.,           0.,   801.729736
   6224,       18148.,           0.,   814.256775
   6225,       18148.,           0.,   826.783813
   6226,       18148.,           0.,   839.310791
   6227,       18148.,           0.,    851.83783
   6228,       18148.,           0.,   864.364868
   6229,       18148.,           0.,   876.891907
   6230,       18148.,           0.,   889.418945
   6231,       18148.,           0.,   901.945923
   6232,       18148.,           0.,   914.472961
   6233,   17748.0449,  -299.144806,   912.544128
   6234,    17760.543,  -299.144806,   912.544128
   6235,    17773.041,  -299.144806,   912.544128
   6236,   17785.5391,  -299.144806,   912.544128
   6237,   17798.0391,  -299.144806,   912.544128
   6238,   17810.5371,  -299.144806,   912.544128
   6239,   17823.0352,  -299.144806,   912.544128
   6240,   17835.5352,  -299.144806,   912.544128
   6241,   17848.0332,  -299.144806,   912.544128
   6242,   17860.5312,  -299.144806,   912.544128
   6243,   17873.0312,  -299.144806,   912.544128
   6244,   17885.5293,  -299.144806,   912.544128
   6245,   17898.0273,  -299.144806,   912.544128
   6246,   17910.5254,  -299.144806,   912.544128
   6247,   17923.0254,  -299.144806,   912.544128
   6248,   17935.5234,  -299.144806,   912.544128
   6249,   17948.0215,  -299.144806,   912.544128
   6250,   17960.5215,  -299.144806,   912.544128
   6251,   17973.0195,  -299.144806,   912.544128
   6252,   17985.5176,  -299.144806,   912.544128
   6253,   17998.0156,  -299.144806,   912.544128
   6254,   18010.5156,  -299.144806,   912.544128
   6255,   18023.0137,  -299.144806,   912.544128
   6256,   18035.5117,  -299.144806,   912.544128
   6257,   18048.0117,  -299.144806,   912.544128
   6258,   18060.5098,  -299.144806,   912.544128
   6259,   18073.0078,  -299.144806,   912.544128
   6260,   18085.5078,  -299.144806,   912.544128
   6261,   18098.0059,  -299.144806,   912.544128
   6262,   18110.5039,  -299.144806,   912.544128
   6263,    18123.002,  -299.144806,   912.544128
   6264,    18135.502,  -299.144806,   912.544128
   6265,   16923.1348,  -299.144806,   912.544128
   6266,   16935.6328,  -299.144806,   912.544128
   6267,   16948.1328,  -299.144806,   912.544128
   6268,   16960.6309,  -299.144806,   912.544128
   6269,   16973.1289,  -299.144806,   912.544128
   6270,   16985.6289,  -299.144806,   912.544128
   6271,    16998.127,  -299.144806,   912.544128
   6272,    17010.625,  -299.144806,   912.544128
   6273,    17023.123,  -299.144806,   912.544128
   6274,    17035.623,  -299.144806,   912.544128
   6275,   17048.1211,  -299.144806,   912.544128
   6276,   17060.6191,  -299.144806,   912.544128
   6277,   17073.1191,  -299.144806,   912.544128
   6278,   17085.6172,  -299.144806,   912.544128
   6279,   17098.1152,  -299.144806,   912.544128
   6280,   17110.6152,  -299.144806,   912.544128
   6281,   17123.1133,  -299.144806,   912.544128
   6282,   17135.6113,  -299.144806,   912.544128
   6283,   17148.1094,  -299.144806,   912.544128
   6284,   17160.6094,  -299.144806,   912.544128
   6285,   17173.1074,  -299.144806,   912.544128
   6286,   17185.6055,  -299.144806,   912.544128
   6287,   17198.1055,  -299.144806,   912.544128
   6288,   17210.6035,  -299.144806,   912.544128
   6289,   17223.1016,  -299.144806,   912.544128
   6290,   17235.5996,  -299.144806,   912.544128
   6291,   17248.0996,  -299.144806,   912.544128
   6292,   17260.5977,  -299.144806,   912.544128
   6293,   17273.0957,  -299.144806,   912.544128
   6294,   17285.5957,  -299.144806,   912.544128
   6295,   17298.0938,  -299.144806,   912.544128
   6296,   17310.5918,  -299.144806,   912.544128
   6297,   17323.0918,  -299.144806,   912.544128
   6298,   17335.5898,  -299.144806,   912.544128
   6299,   17348.0879,  -299.144806,   912.544128
   6300,   17360.5859,  -299.144806,   912.544128
   6301,   17373.0859,  -299.144806,   912.544128
   6302,    17385.584,  -299.144806,   912.544128
   6303,    17398.082,  -299.144806,   912.544128
   6304,    17410.582,  -299.144806,   912.544128
   6305,   17423.0801,  -299.144806,   912.544128
   6306,   17435.5781,  -299.144806,   912.544128
   6307,   17448.0762,  -299.144806,   912.544128
   6308,   17460.5762,  -299.144806,   912.544128
   6309,   17473.0742,  -299.144806,   912.544128
   6310,   17485.5723,  -299.144806,   912.544128
   6311,   17498.0723,  -299.144806,   912.544128
   6312,   17510.5703,  -299.144806,   912.544128
   6313,   17523.0684,  -299.144806,   912.544128
   6314,   17535.5684,  -299.144806,   912.544128
   6315,   17548.0664,  -299.144806,   912.544128
   6316,   17560.5645,  -299.144806,   912.544128
   6317,   17573.0625,  -299.144806,   912.544128
   6318,   17585.5625,  -299.144806,   912.544128
   6319,   17598.0605,  -299.144806,   912.544128
   6320,   17610.5586,  -299.144806,   912.544128
   6321,   17623.0586,  -299.144806,   912.544128
   6322,   17635.5566,  -299.144806,   912.544128
   6323,   17648.0547,  -299.144806,   912.544128
   6324,   17660.5547,  -299.144806,   912.544128
   6325,   17673.0527,  -299.144806,   912.544128
   6326,   17685.5508,  -299.144806,   912.544128
   6327,   17698.0488,  -299.144806,   912.544128
   6328,   17710.5488,  -299.144806,   912.544128
   6329,   17723.0469,  -299.144806,   912.544128
   6330,   16098.2256,  -299.144806,   912.544128
   6331,   16110.7246,  -299.144806,   912.544128
   6332,   16123.2227,  -299.144806,   912.544128
   6333,   16135.7217,  -299.144806,   912.544128
   6334,   16148.2207,  -299.144806,   912.544128
   6335,   16160.7188,  -299.144806,   912.544128
   6336,   16173.2178,  -299.144806,   912.544128
   6337,   16185.7158,  -299.144806,   912.544128
   6338,   16198.2148,  -299.144806,   912.544128
   6339,   16210.7139,  -299.144806,   912.544128
   6340,   16223.2119,  -299.144806,   912.544128
   6341,   16235.7109,  -299.144806,   912.544128
   6342,    16248.209,  -299.144806,   912.544128
   6343,    16260.708,  -299.144806,   912.544128
   6344,    16273.207,  -299.144806,   912.544128
   6345,   16285.7051,  -299.144806,   912.544128
   6346,   16298.2041,  -299.144806,   912.544128
   6347,   16310.7021,  -299.144806,   912.544128
   6348,   16323.2012,  -299.144806,   912.544128
   6349,   16335.7002,  -299.144806,   912.544128
   6350,   16348.1982,  -299.144806,   912.544128
   6351,   16360.6973,  -299.144806,   912.544128
   6352,   16373.1953,  -299.144806,   912.544128
   6353,   16385.6934,  -299.144806,   912.544128
   6354,   16398.1934,  -299.144806,   912.544128
   6355,   16410.6914,  -299.144806,   912.544128
   6356,   16423.1895,  -299.144806,   912.544128
   6357,   16435.6895,  -299.144806,   912.544128
   6358,   16448.1875,  -299.144806,   912.544128
   6359,   16460.6855,  -299.144806,   912.544128
   6360,   16473.1855,  -299.144806,   912.544128
   6361,   16485.6836,  -299.144806,   912.544128
   6362,   16498.1816,  -299.144806,   912.544128
   6363,   16510.6797,  -299.144806,   912.544128
   6364,   16523.1797,  -299.144806,   912.544128
   6365,   16535.6777,  -299.144806,   912.544128
   6366,   16548.1758,  -299.144806,   912.544128
   6367,   16560.6758,  -299.144806,   912.544128
   6368,   16573.1738,  -299.144806,   912.544128
   6369,   16585.6719,  -299.144806,   912.544128
   6370,   16598.1699,  -299.144806,   912.544128
   6371,   16610.6699,  -299.144806,   912.544128
   6372,    16623.168,  -299.144806,   912.544128
   6373,    16635.666,  -299.144806,   912.544128
   6374,    16648.166,  -299.144806,   912.544128
   6375,   16660.6641,  -299.144806,   912.544128
   6376,   16673.1621,  -299.144806,   912.544128
   6377,   16685.6621,  -299.144806,   912.544128
   6378,   16698.1602,  -299.144806,   912.544128
   6379,   16710.6582,  -299.144806,   912.544128
   6380,   16723.1562,  -299.144806,   912.544128
   6381,   16735.6562,  -299.144806,   912.544128
   6382,   16748.1543,  -299.144806,   912.544128
   6383,   16760.6523,  -299.144806,   912.544128
   6384,   16773.1523,  -299.144806,   912.544128
   6385,   16785.6504,  -299.144806,   912.544128
   6386,   16798.1484,  -299.144806,   912.544128
   6387,   16810.6465,  -299.144806,   912.544128
   6388,   16823.1465,  -299.144806,   912.544128
   6389,   16835.6445,  -299.144806,   912.544128
   6390,   16848.1426,  -299.144806,   912.544128
   6391,   16860.6426,  -299.144806,   912.544128
   6392,   16873.1406,  -299.144806,   912.544128
   6393,   16885.6387,  -299.144806,   912.544128
   6394,   16898.1387,  -299.144806,   912.544128
   6395,   15273.3164,  -299.144806,   912.544128
   6396,   15285.8154,  -299.144806,   912.544128
   6397,   15298.3145,  -299.144806,   912.544128
   6398,   15310.8125,  -299.144806,   912.544128
   6399,   15323.3115,  -299.144806,   912.544128
   6400,   15335.8096,  -299.144806,   912.544128
   6401,   15348.3086,  -299.144806,   912.544128
   6402,   15360.8076,  -299.144806,   912.544128
   6403,   15373.3057,  -299.144806,   912.544128
   6404,   15385.8047,  -299.144806,   912.544128
   6405,   15398.3027,  -299.144806,   912.544128
   6406,   15410.8018,  -299.144806,   912.544128
   6407,   15423.2998,  -299.144806,   912.544128
   6408,   15435.7988,  -299.144806,   912.544128
   6409,   15448.2979,  -299.144806,   912.544128
   6410,   15460.7959,  -299.144806,   912.544128
   6411,   15473.2949,  -299.144806,   912.544128
   6412,    15485.793,  -299.144806,   912.544128
   6413,    15498.292,  -299.144806,   912.544128
   6414,    15510.791,  -299.144806,   912.544128
   6415,   15523.2891,  -299.144806,   912.544128
   6416,   15535.7881,  -299.144806,   912.544128
   6417,   15548.2861,  -299.144806,   912.544128
   6418,   15560.7852,  -299.144806,   912.544128
   6419,   15573.2842,  -299.144806,   912.544128
   6420,   15585.7822,  -299.144806,   912.544128
   6421,   15598.2812,  -299.144806,   912.544128
   6422,   15610.7793,  -299.144806,   912.544128
   6423,   15623.2783,  -299.144806,   912.544128
   6424,   15635.7773,  -299.144806,   912.544128
   6425,   15648.2754,  -299.144806,   912.544128
   6426,   15660.7744,  -299.144806,   912.544128
   6427,   15673.2725,  -299.144806,   912.544128
   6428,   15685.7715,  -299.144806,   912.544128
   6429,   15698.2695,  -299.144806,   912.544128
   6430,   15710.7686,  -299.144806,   912.544128
   6431,   15723.2676,  -299.144806,   912.544128
   6432,   15735.7656,  -299.144806,   912.544128
   6433,   15748.2646,  -299.144806,   912.544128
   6434,   15760.7627,  -299.144806,   912.544128
   6435,   15773.2617,  -299.144806,   912.544128
   6436,   15785.7607,  -299.144806,   912.544128
   6437,   15798.2588,  -299.144806,   912.544128
   6438,   15810.7578,  -299.144806,   912.544128
   6439,   15823.2559,  -299.144806,   912.544128
   6440,   15835.7549,  -299.144806,   912.544128
   6441,   15848.2539,  -299.144806,   912.544128
   6442,    15860.752,  -299.144806,   912.544128
   6443,    15873.251,  -299.144806,   912.544128
   6444,    15885.749,  -299.144806,   912.544128
   6445,    15898.248,  -299.144806,   912.544128
   6446,   15910.7461,  -299.144806,   912.544128
   6447,   15923.2451,  -299.144806,   912.544128
   6448,   15935.7441,  -299.144806,   912.544128
   6449,   15948.2422,  -299.144806,   912.544128
   6450,   15960.7412,  -299.144806,   912.544128
   6451,   15973.2393,  -299.144806,   912.544128
   6452,   15985.7383,  -299.144806,   912.544128
   6453,   15998.2373,  -299.144806,   912.544128
   6454,   16010.7354,  -299.144806,   912.544128
   6455,   16023.2344,  -299.144806,   912.544128
   6456,   16035.7324,  -299.144806,   912.544128
   6457,   16048.2314,  -299.144806,   912.544128
   6458,   16060.7305,  -299.144806,   912.544128
   6459,   16073.2285,  -299.144806,   912.544128
   6460,   14448.4072,  -299.144806,   912.544128
   6461,   14460.9062,  -299.144806,   912.544128
   6462,   14473.4053,  -299.144806,   912.544128
   6463,   14485.9033,  -299.144806,   912.544128
   6464,   14498.4023,  -299.144806,   912.544128
   6465,   14510.9004,  -299.144806,   912.544128
   6466,   14523.3994,  -299.144806,   912.544128
   6467,   14535.8984,  -299.144806,   912.544128
   6468,   14548.3965,  -299.144806,   912.544128
   6469,   14560.8955,  -299.144806,   912.544128
   6470,   14573.3936,  -299.144806,   912.544128
   6471,   14585.8926,  -299.144806,   912.544128
   6472,   14598.3916,  -299.144806,   912.544128
   6473,   14610.8896,  -299.144806,   912.544128
   6474,   14623.3887,  -299.144806,   912.544128
   6475,   14635.8867,  -299.144806,   912.544128
   6476,   14648.3857,  -299.144806,   912.544128
   6477,   14660.8848,  -299.144806,   912.544128
   6478,   14673.3828,  -299.144806,   912.544128
   6479,   14685.8818,  -299.144806,   912.544128
   6480,   14698.3799,  -299.144806,   912.544128
   6481,   14710.8789,  -299.144806,   912.544128
   6482,    14723.377,  -299.144806,   912.544128
   6483,    14735.876,  -299.144806,   912.544128
   6484,    14748.375,  -299.144806,   912.544128
   6485,    14760.873,  -299.144806,   912.544128
   6486,   14773.3721,  -299.144806,   912.544128
   6487,   14785.8701,  -299.144806,   912.544128
   6488,   14798.3691,  -299.144806,   912.544128
   6489,   14810.8682,  -299.144806,   912.544128
   6490,   14823.3662,  -299.144806,   912.544128
   6491,   14835.8652,  -299.144806,   912.544128
   6492,   14848.3633,  -299.144806,   912.544128
   6493,   14860.8623,  -299.144806,   912.544128
   6494,   14873.3613,  -299.144806,   912.544128
   6495,   14885.8594,  -299.144806,   912.544128
   6496,   14898.3584,  -299.144806,   912.544128
   6497,   14910.8564,  -299.144806,   912.544128
   6498,   14923.3555,  -299.144806,   912.544128
   6499,   14935.8535,  -299.144806,   912.544128
   6500,   14948.3525,  -299.144806,   912.544128
   6501,   14960.8516,  -299.144806,   912.544128
   6502,   14973.3496,  -299.144806,   912.544128
   6503,   14985.8486,  -299.144806,   912.544128
   6504,   14998.3467,  -299.144806,   912.544128
   6505,   15010.8457,  -299.144806,   912.544128
   6506,   15023.3447,  -299.144806,   912.544128
   6507,   15035.8428,  -299.144806,   912.544128
   6508,   15048.3418,  -299.144806,   912.544128
   6509,   15060.8398,  -299.144806,   912.544128
   6510,   15073.3389,  -299.144806,   912.544128
   6511,   15085.8379,  -299.144806,   912.544128
   6512,   15098.3359,  -299.144806,   912.544128
   6513,    15110.835,  -299.144806,   912.544128
   6514,    15123.333,  -299.144806,   912.544128
   6515,    15135.832,  -299.144806,   912.544128
   6516,   15148.3311,  -299.144806,   912.544128
   6517,   15160.8291,  -299.144806,   912.544128
   6518,   15173.3281,  -299.144806,   912.544128
   6519,   15185.8262,  -299.144806,   912.544128
   6520,   15198.3252,  -299.144806,   912.544128
   6521,   15210.8232,  -299.144806,   912.544128
   6522,   15223.3223,  -299.144806,   912.544128
   6523,   15235.8213,  -299.144806,   912.544128
   6524,   15248.3193,  -299.144806,   912.544128
   6525,    13623.499,  -299.144806,   912.544128
   6526,   13635.9971,  -299.144806,   912.544128
   6527,   13648.4961,  -299.144806,   912.544128
   6528,   13660.9941,  -299.144806,   912.544128
   6529,   13673.4932,  -299.144806,   912.544128
   6530,   13685.9922,  -299.144806,   912.544128
   6531,   13698.4902,  -299.144806,   912.544128
   6532,   13710.9893,  -299.144806,   912.544128
   6533,   13723.4873,  -299.144806,   912.544128
   6534,   13735.9863,  -299.144806,   912.544128
   6535,   13748.4844,  -299.144806,   912.544128
   6536,   13760.9834,  -299.144806,   912.544128
   6537,   13773.4824,  -299.144806,   912.544128
   6538,   13785.9805,  -299.144806,   912.544128
   6539,   13798.4795,  -299.144806,   912.544128
   6540,   13810.9775,  -299.144806,   912.544128
   6541,   13823.4766,  -299.144806,   912.544128
   6542,   13835.9756,  -299.144806,   912.544128
   6543,   13848.4736,  -299.144806,   912.544128
   6544,   13860.9727,  -299.144806,   912.544128
   6545,   13873.4707,  -299.144806,   912.544128
   6546,   13885.9697,  -299.144806,   912.544128
   6547,   13898.4688,  -299.144806,   912.544128
   6548,   13910.9668,  -299.144806,   912.544128
   6549,   13923.4658,  -299.144806,   912.544128
   6550,   13935.9639,  -299.144806,   912.544128
   6551,   13948.4629,  -299.144806,   912.544128
   6552,   13960.9619,  -299.144806,   912.544128
   6553,     13973.46,  -299.144806,   912.544128
   6554,    13985.959,  -299.144806,   912.544128
   6555,    13998.457,  -299.144806,   912.544128
   6556,   14010.9561,  -299.144806,   912.544128
   6557,   14023.4541,  -299.144806,   912.544128
   6558,   14035.9531,  -299.144806,   912.544128
   6559,   14048.4521,  -299.144806,   912.544128
   6560,   14060.9502,  -299.144806,   912.544128
   6561,   14073.4492,  -299.144806,   912.544128
   6562,   14085.9473,  -299.144806,   912.544128
   6563,   14098.4463,  -299.144806,   912.544128
   6564,   14110.9453,  -299.144806,   912.544128
   6565,   14123.4434,  -299.144806,   912.544128
   6566,   14135.9424,  -299.144806,   912.544128
   6567,   14148.4404,  -299.144806,   912.544128
   6568,   14160.9395,  -299.144806,   912.544128
   6569,   14173.4385,  -299.144806,   912.544128
   6570,   14185.9365,  -299.144806,   912.544128
   6571,   14198.4355,  -299.144806,   912.544128
   6572,   14210.9336,  -299.144806,   912.544128
   6573,   14223.4326,  -299.144806,   912.544128
   6574,   14235.9307,  -299.144806,   912.544128
   6575,   14248.4297,  -299.144806,   912.544128
   6576,   14260.9287,  -299.144806,   912.544128
   6577,   14273.4268,  -299.144806,   912.544128
   6578,   14285.9258,  -299.144806,   912.544128
   6579,   14298.4238,  -299.144806,   912.544128
   6580,   14310.9229,  -299.144806,   912.544128
   6581,   14323.4219,  -299.144806,   912.544128
   6582,   14335.9199,  -299.144806,   912.544128
   6583,   14348.4189,  -299.144806,   912.544128
   6584,    14360.917,  -299.144806,   912.544128
   6585,    14373.416,  -299.144806,   912.544128
   6586,    14385.915,  -299.144806,   912.544128
   6587,   14398.4131,  -299.144806,   912.544128
   6588,   14410.9121,  -299.144806,   912.544128
   6589,   14423.4102,  -299.144806,   912.544128
   6590,   12798.5898,  -299.144806,   912.544128
   6591,   12811.0879,  -299.144806,   912.544128
   6592,   12823.5869,  -299.144806,   912.544128
   6593,    12836.085,  -299.144806,   912.544128
   6594,    12848.584,  -299.144806,   912.544128
   6595,    12861.083,  -299.144806,   912.544128
   6596,   12873.5811,  -299.144806,   912.544128
   6597,   12886.0801,  -299.144806,   912.544128
   6598,   12898.5781,  -299.144806,   912.544128
   6599,   12911.0771,  -299.144806,   912.544128
   6600,   12923.5762,  -299.144806,   912.544128
   6601,   12936.0742,  -299.144806,   912.544128
   6602,   12948.5732,  -299.144806,   912.544128
   6603,   12961.0713,  -299.144806,   912.544128
   6604,   12973.5703,  -299.144806,   912.544128
   6605,   12986.0693,  -299.144806,   912.544128
   6606,   12998.5674,  -299.144806,   912.544128
   6607,   13011.0664,  -299.144806,   912.544128
   6608,   13023.5645,  -299.144806,   912.544128
   6609,   13036.0635,  -299.144806,   912.544128
   6610,   13048.5615,  -299.144806,   912.544128
   6611,   13061.0605,  -299.144806,   912.544128
   6612,   13073.5596,  -299.144806,   912.544128
   6613,   13086.0576,  -299.144806,   912.544128
   6614,   13098.5566,  -299.144806,   912.544128
   6615,   13111.0547,  -299.144806,   912.544128
   6616,   13123.5537,  -299.144806,   912.544128
   6617,   13136.0527,  -299.144806,   912.544128
   6618,   13148.5508,  -299.144806,   912.544128
   6619,   13161.0498,  -299.144806,   912.544128
   6620,   13173.5479,  -299.144806,   912.544128
   6621,   13186.0469,  -299.144806,   912.544128
   6622,   13198.5459,  -299.144806,   912.544128
   6623,   13211.0439,  -299.144806,   912.544128
   6624,    13223.543,  -299.144806,   912.544128
   6625,    13236.041,  -299.144806,   912.544128
   6626,     13248.54,  -299.144806,   912.544128
   6627,   13261.0381,  -299.144806,   912.544128
   6628,   13273.5371,  -299.144806,   912.544128
   6629,   13286.0361,  -299.144806,   912.544128
   6630,   13298.5342,  -299.144806,   912.544128
   6631,   13311.0332,  -299.144806,   912.544128
   6632,   13323.5312,  -299.144806,   912.544128
   6633,   13336.0303,  -299.144806,   912.544128
   6634,   13348.5293,  -299.144806,   912.544128
   6635,   13361.0273,  -299.144806,   912.544128
   6636,   13373.5264,  -299.144806,   912.544128
   6637,   13386.0244,  -299.144806,   912.544128
   6638,   13398.5234,  -299.144806,   912.544128
   6639,   13411.0225,  -299.144806,   912.544128
   6640,   13423.5205,  -299.144806,   912.544128
   6641,   13436.0195,  -299.144806,   912.544128
   6642,   13448.5176,  -299.144806,   912.544128
   6643,   13461.0166,  -299.144806,   912.544128
   6644,   13473.5156,  -299.144806,   912.544128
   6645,   13486.0137,  -299.144806,   912.544128
   6646,   13498.5127,  -299.144806,   912.544128
   6647,   13511.0107,  -299.144806,   912.544128
   6648,   13523.5098,  -299.144806,   912.544128
   6649,   13536.0078,  -299.144806,   912.544128
   6650,   13548.5068,  -299.144806,   912.544128
   6651,   13561.0059,  -299.144806,   912.544128
   6652,   13573.5039,  -299.144806,   912.544128
   6653,   13586.0029,  -299.144806,   912.544128
   6654,    13598.501,  -299.144806,   912.544128
   6655,   11973.6807,  -299.144806,   912.544128
   6656,   11986.1787,  -299.144806,   912.544128
   6657,   11998.6777,  -299.144806,   912.544128
   6658,   12011.1768,  -299.144806,   912.544128
   6659,   12023.6748,  -299.144806,   912.544128
   6660,   12036.1738,  -299.144806,   912.544128
   6661,   12048.6719,  -299.144806,   912.544128
   6662,   12061.1709,  -299.144806,   912.544128
   6663,   12073.6689,  -299.144806,   912.544128
   6664,    12086.168,  -299.144806,   912.544128
   6665,    12098.667,  -299.144806,   912.544128
   6666,    12111.165,  -299.144806,   912.544128
   6667,   12123.6641,  -299.144806,   912.544128
   6668,   12136.1621,  -299.144806,   912.544128
   6669,   12148.6611,  -299.144806,   912.544128
   6670,   12161.1602,  -299.144806,   912.544128
   6671,   12173.6582,  -299.144806,   912.544128
   6672,   12186.1572,  -299.144806,   912.544128
   6673,   12198.6553,  -299.144806,   912.544128
   6674,   12211.1543,  -299.144806,   912.544128
   6675,   12223.6533,  -299.144806,   912.544128
   6676,   12236.1514,  -299.144806,   912.544128
   6677,   12248.6504,  -299.144806,   912.544128
   6678,   12261.1484,  -299.144806,   912.544128
   6679,   12273.6475,  -299.144806,   912.544128
   6680,   12286.1465,  -299.144806,   912.544128
   6681,   12298.6445,  -299.144806,   912.544128
   6682,   12311.1436,  -299.144806,   912.544128
   6683,   12323.6416,  -299.144806,   912.544128
   6684,   12336.1406,  -299.144806,   912.544128
   6685,   12348.6387,  -299.144806,   912.544128
   6686,   12361.1377,  -299.144806,   912.544128
   6687,   12373.6367,  -299.144806,   912.544128
   6688,   12386.1348,  -299.144806,   912.544128
   6689,   12398.6338,  -299.144806,   912.544128
   6690,   12411.1318,  -299.144806,   912.544128
   6691,   12423.6309,  -299.144806,   912.544128
   6692,   12436.1299,  -299.144806,   912.544128
   6693,   12448.6279,  -299.144806,   912.544128
   6694,    12461.127,  -299.144806,   912.544128
   6695,    12473.625,  -299.144806,   912.544128
   6696,    12486.124,  -299.144806,   912.544128
   6697,    12498.623,  -299.144806,   912.544128
   6698,   12511.1211,  -299.144806,   912.544128
   6699,   12523.6201,  -299.144806,   912.544128
   6700,   12536.1182,  -299.144806,   912.544128
   6701,   12548.6172,  -299.144806,   912.544128
   6702,   12561.1152,  -299.144806,   912.544128
   6703,   12573.6143,  -299.144806,   912.544128
   6704,   12586.1133,  -299.144806,   912.544128
   6705,   12598.6113,  -299.144806,   912.544128
   6706,   12611.1104,  -299.144806,   912.544128
   6707,   12623.6084,  -299.144806,   912.544128
   6708,   12636.1074,  -299.144806,   912.544128
   6709,   12648.6064,  -299.144806,   912.544128
   6710,   12661.1045,  -299.144806,   912.544128
   6711,   12673.6035,  -299.144806,   912.544128
   6712,   12686.1016,  -299.144806,   912.544128
   6713,   12698.6006,  -299.144806,   912.544128
   6714,   12711.0996,  -299.144806,   912.544128
   6715,   12723.5977,  -299.144806,   912.544128
   6716,   12736.0967,  -299.144806,   912.544128
   6717,   12748.5947,  -299.144806,   912.544128
   6718,   12761.0938,  -299.144806,   912.544128
   6719,   12773.5928,  -299.144806,   912.544128
   6720,   11148.7715,  -299.144806,   912.544128
   6721,   11161.2695,  -299.144806,   912.544128
   6722,   11173.7686,  -299.144806,   912.544128
   6723,   11186.2676,  -299.144806,   912.544128
   6724,   11198.7656,  -299.144806,   912.544128
   6725,   11211.2646,  -299.144806,   912.544128
   6726,   11223.7627,  -299.144806,   912.544128
   6727,   11236.2617,  -299.144806,   912.544128
   6728,   11248.7607,  -299.144806,   912.544128
   6729,   11261.2588,  -299.144806,   912.544128
   6730,   11273.7578,  -299.144806,   912.544128
   6731,   11286.2559,  -299.144806,   912.544128
   6732,   11298.7549,  -299.144806,   912.544128
   6733,   11311.2539,  -299.144806,   912.544128
   6734,    11323.752,  -299.144806,   912.544128
   6735,    11336.251,  -299.144806,   912.544128
   6736,    11348.749,  -299.144806,   912.544128
   6737,    11361.248,  -299.144806,   912.544128
   6738,   11373.7461,  -299.144806,   912.544128
   6739,   11386.2451,  -299.144806,   912.544128
   6740,   11398.7441,  -299.144806,   912.544128
   6741,   11411.2422,  -299.144806,   912.544128
   6742,   11423.7412,  -299.144806,   912.544128
   6743,   11436.2393,  -299.144806,   912.544128
   6744,   11448.7383,  -299.144806,   912.544128
   6745,   11461.2373,  -299.144806,   912.544128
   6746,   11473.7354,  -299.144806,   912.544128
   6747,   11486.2344,  -299.144806,   912.544128
   6748,   11498.7324,  -299.144806,   912.544128
   6749,   11511.2314,  -299.144806,   912.544128
   6750,   11523.7305,  -299.144806,   912.544128
   6751,   11536.2285,  -299.144806,   912.544128
   6752,   11548.7275,  -299.144806,   912.544128
   6753,   11561.2256,  -299.144806,   912.544128
   6754,   11573.7246,  -299.144806,   912.544128
   6755,   11586.2227,  -299.144806,   912.544128
   6756,   11598.7217,  -299.144806,   912.544128
   6757,   11611.2207,  -299.144806,   912.544128
   6758,   11623.7188,  -299.144806,   912.544128
   6759,   11636.2178,  -299.144806,   912.544128
   6760,   11648.7158,  -299.144806,   912.544128
   6761,   11661.2148,  -299.144806,   912.544128
   6762,   11673.7139,  -299.144806,   912.544128
   6763,   11686.2119,  -299.144806,   912.544128
   6764,   11698.7109,  -299.144806,   912.544128
   6765,    11711.209,  -299.144806,   912.544128
   6766,    11723.708,  -299.144806,   912.544128
   6767,    11736.207,  -299.144806,   912.544128
   6768,   11748.7051,  -299.144806,   912.544128
   6769,   11761.2041,  -299.144806,   912.544128
   6770,   11773.7021,  -299.144806,   912.544128
   6771,   11786.2012,  -299.144806,   912.544128
   6772,   11798.7002,  -299.144806,   912.544128
   6773,   11811.1982,  -299.144806,   912.544128
   6774,   11823.6973,  -299.144806,   912.544128
   6775,   11836.1953,  -299.144806,   912.544128
   6776,   11848.6943,  -299.144806,   912.544128
   6777,   11861.1924,  -299.144806,   912.544128
   6778,   11873.6914,  -299.144806,   912.544128
   6779,   11886.1904,  -299.144806,   912.544128
   6780,   11898.6885,  -299.144806,   912.544128
   6781,   11911.1875,  -299.144806,   912.544128
   6782,   11923.6855,  -299.144806,   912.544128
   6783,   11936.1846,  -299.144806,   912.544128
   6784,   11948.6836,  -299.144806,   912.544128
   6785,   10323.8623,  -299.144806,   912.544128
   6786,   10336.3613,  -299.144806,   912.544128
   6787,   10348.8594,  -299.144806,   912.544128
   6788,   10361.3584,  -299.144806,   912.544128
   6789,   10373.8564,  -299.144806,   912.544128
   6790,   10386.3555,  -299.144806,   912.544128
   6791,   10398.8535,  -299.144806,   912.544128
   6792,   10411.3525,  -299.144806,   912.544128
   6793,   10423.8516,  -299.144806,   912.544128
   6794,   10436.3496,  -299.144806,   912.544128
   6795,   10448.8486,  -299.144806,   912.544128
   6796,   10461.3467,  -299.144806,   912.544128
   6797,   10473.8457,  -299.144806,   912.544128
   6798,   10486.3447,  -299.144806,   912.544128
   6799,   10498.8428,  -299.144806,   912.544128
   6800,   10511.3418,  -299.144806,   912.544128
   6801,   10523.8398,  -299.144806,   912.544128
   6802,   10536.3389,  -299.144806,   912.544128
   6803,   10548.8379,  -299.144806,   912.544128
   6804,   10561.3359,  -299.144806,   912.544128
   6805,    10573.835,  -299.144806,   912.544128
   6806,    10586.333,  -299.144806,   912.544128
   6807,    10598.832,  -299.144806,   912.544128
   6808,   10611.3311,  -299.144806,   912.544128
   6809,   10623.8291,  -299.144806,   912.544128
   6810,   10636.3281,  -299.144806,   912.544128
   6811,   10648.8262,  -299.144806,   912.544128
   6812,   10661.3252,  -299.144806,   912.544128
   6813,   10673.8232,  -299.144806,   912.544128
   6814,   10686.3223,  -299.144806,   912.544128
   6815,   10698.8213,  -299.144806,   912.544128
   6816,   10711.3193,  -299.144806,   912.544128
   6817,   10723.8184,  -299.144806,   912.544128
   6818,   10736.3164,  -299.144806,   912.544128
   6819,   10748.8154,  -299.144806,   912.544128
   6820,   10761.3145,  -299.144806,   912.544128
   6821,   10773.8125,  -299.144806,   912.544128
   6822,   10786.3115,  -299.144806,   912.544128
   6823,   10798.8096,  -299.144806,   912.544128
   6824,   10811.3086,  -299.144806,   912.544128
   6825,   10823.8076,  -299.144806,   912.544128
   6826,   10836.3057,  -299.144806,   912.544128
   6827,   10848.8047,  -299.144806,   912.544128
   6828,   10861.3027,  -299.144806,   912.544128
   6829,   10873.8018,  -299.144806,   912.544128
   6830,   10886.2998,  -299.144806,   912.544128
   6831,   10898.7988,  -299.144806,   912.544128
   6832,   10911.2979,  -299.144806,   912.544128
   6833,   10923.7959,  -299.144806,   912.544128
   6834,   10936.2949,  -299.144806,   912.544128
   6835,    10948.793,  -299.144806,   912.544128
   6836,    10961.292,  -299.144806,   912.544128
   6837,    10973.791,  -299.144806,   912.544128
   6838,   10986.2891,  -299.144806,   912.544128
   6839,   10998.7881,  -299.144806,   912.544128
   6840,   11011.2861,  -299.144806,   912.544128
   6841,   11023.7852,  -299.144806,   912.544128
   6842,   11036.2842,  -299.144806,   912.544128
   6843,   11048.7822,  -299.144806,   912.544128
   6844,   11061.2812,  -299.144806,   912.544128
   6845,   11073.7793,  -299.144806,   912.544128
   6846,   11086.2783,  -299.144806,   912.544128
   6847,   11098.7773,  -299.144806,   912.544128
   6848,   11111.2754,  -299.144806,   912.544128
   6849,   11123.7744,  -299.144806,   912.544128
   6850,   9498.95312,  -299.144806,   912.544128
   6851,   9511.45215,  -299.144806,   912.544128
   6852,    9523.9502,  -299.144806,   912.544128
   6853,   9536.44922,  -299.144806,   912.544128
   6854,   9548.94727,  -299.144806,   912.544128
   6855,   9561.44629,  -299.144806,   912.544128
   6856,   9573.94531,  -299.144806,   912.544128
   6857,   9586.44336,  -299.144806,   912.544128
   6858,   9598.94238,  -299.144806,   912.544128
   6859,   9611.44043,  -299.144806,   912.544128
   6860,   9623.93945,  -299.144806,   912.544128
   6861,   9636.43848,  -299.144806,   912.544128
   6862,   9648.93652,  -299.144806,   912.544128
   6863,   9661.43555,  -299.144806,   912.544128
   6864,   9673.93359,  -299.144806,   912.544128
   6865,   9686.43262,  -299.144806,   912.544128
   6866,   9698.93066,  -299.144806,   912.544128
   6867,   9711.42969,  -299.144806,   912.544128
   6868,   9723.92871,  -299.144806,   912.544128
   6869,   9736.42676,  -299.144806,   912.544128
   6870,   9748.92578,  -299.144806,   912.544128
   6871,   9761.42383,  -299.144806,   912.544128
   6872,   9773.92285,  -299.144806,   912.544128
   6873,   9786.42188,  -299.144806,   912.544128
   6874,   9798.91992,  -299.144806,   912.544128
   6875,   9811.41895,  -299.144806,   912.544128
   6876,   9823.91699,  -299.144806,   912.544128
   6877,   9836.41602,  -299.144806,   912.544128
   6878,   9848.91504,  -299.144806,   912.544128
   6879,   9861.41309,  -299.144806,   912.544128
   6880,   9873.91211,  -299.144806,   912.544128
   6881,   9886.41016,  -299.144806,   912.544128
   6882,   9898.90918,  -299.144806,   912.544128
   6883,   9911.40723,  -299.144806,   912.544128
   6884,   9923.90625,  -299.144806,   912.544128
   6885,   9936.40527,  -299.144806,   912.544128
   6886,   9948.90332,  -299.144806,   912.544128
   6887,   9961.40234,  -299.144806,   912.544128
   6888,   9973.90039,  -299.144806,   912.544128
   6889,   9986.39941,  -299.144806,   912.544128
   6890,   9998.89844,  -299.144806,   912.544128
   6891,   10011.3965,  -299.144806,   912.544128
   6892,   10023.8955,  -299.144806,   912.544128
   6893,   10036.3936,  -299.144806,   912.544128
   6894,   10048.8926,  -299.144806,   912.544128
   6895,   10061.3916,  -299.144806,   912.544128
   6896,   10073.8896,  -299.144806,   912.544128
   6897,   10086.3887,  -299.144806,   912.544128
   6898,   10098.8867,  -299.144806,   912.544128
   6899,   10111.3857,  -299.144806,   912.544128
   6900,   10123.8848,  -299.144806,   912.544128
   6901,   10136.3828,  -299.144806,   912.544128
   6902,   10148.8818,  -299.144806,   912.544128
   6903,   10161.3799,  -299.144806,   912.544128
   6904,   10173.8789,  -299.144806,   912.544128
   6905,    10186.377,  -299.144806,   912.544128
   6906,    10198.876,  -299.144806,   912.544128
   6907,    10211.375,  -299.144806,   912.544128
   6908,    10223.873,  -299.144806,   912.544128
   6909,   10236.3721,  -299.144806,   912.544128
   6910,   10248.8701,  -299.144806,   912.544128
   6911,   10261.3691,  -299.144806,   912.544128
   6912,   10273.8682,  -299.144806,   912.544128
   6913,   10286.3662,  -299.144806,   912.544128
   6914,   10298.8652,  -299.144806,   912.544128
   6915,   9086.49902,  -299.144806,   912.544128
   6916,   9098.99707,  -299.144806,   912.544128
   6917,   9111.49609,  -299.144806,   912.544128
   6918,   9123.99414,  -299.144806,   912.544128
   6919,   9136.49316,  -299.144806,   912.544128
   6920,   9148.99219,  -299.144806,   912.544128
   6921,   9161.49023,  -299.144806,   912.544128
   6922,   9173.98926,  -299.144806,   912.544128
   6923,    9186.4873,  -299.144806,   912.544128
   6924,   9198.98633,  -299.144806,   912.544128
   6925,   9211.48438,  -299.144806,   912.544128
   6926,    9223.9834,  -299.144806,   912.544128
   6927,   9236.48242,  -299.144806,   912.544128
   6928,   9248.98047,  -299.144806,   912.544128
   6929,   9261.47949,  -299.144806,   912.544128
   6930,   9273.97754,  -299.144806,   912.544128
   6931,   9286.47656,  -299.144806,   912.544128
   6932,   9298.97559,  -299.144806,   912.544128
   6933,   9311.47363,  -299.144806,   912.544128
   6934,   9323.97266,  -299.144806,   912.544128
   6935,    9336.4707,  -299.144806,   912.544128
   6936,   9348.96973,  -299.144806,   912.544128
   6937,   9361.46875,  -299.144806,   912.544128
   6938,    9373.9668,  -299.144806,   912.544128
   6939,   9386.46582,  -299.144806,   912.544128
   6940,   9398.96387,  -299.144806,   912.544128
   6941,   9411.46289,  -299.144806,   912.544128
   6942,   9423.96191,  -299.144806,   912.544128
   6943,   9436.45996,  -299.144806,   912.544128
   6944,   9448.95898,  -299.144806,   912.544128
   6945,   9461.45703,  -299.144806,   912.544128
   6946,   9473.95605,  -299.144806,   912.544128
   6947,   8674.04395,  -299.144806,   912.544128
   6948,   8686.54297,  -299.144806,   912.544128
   6949,   8699.04102,  -299.144806,   912.544128
   6950,   8711.54004,  -299.144806,   912.544128
   6951,   8724.03809,  -299.144806,   912.544128
   6952,   8736.53711,  -299.144806,   912.544128
   6953,   8749.03613,  -299.144806,   912.544128
   6954,   8761.53418,  -299.144806,   912.544128
   6955,    8774.0332,  -299.144806,   912.544128
   6956,   8786.53125,  -299.144806,   912.544128
   6957,   8799.03027,  -299.144806,   912.544128
   6958,    8811.5293,  -299.144806,   912.544128
   6959,   8824.02734,  -299.144806,   912.544128
   6960,   8836.52637,  -299.144806,   912.544128
   6961,   8849.02441,  -299.144806,   912.544128
   6962,   8861.52344,  -299.144806,   912.544128
   6963,   8874.02246,  -299.144806,   912.544128
   6964,   8886.52051,  -299.144806,   912.544128
   6965,   8899.01953,  -299.144806,   912.544128
   6966,   8911.51758,  -299.144806,   912.544128
   6967,    8924.0166,  -299.144806,   912.544128
   6968,   8936.51562,  -299.144806,   912.544128
   6969,   8949.01367,  -299.144806,   912.544128
   6970,    8961.5127,  -299.144806,   912.544128
   6971,   8974.01074,  -299.144806,   912.544128
   6972,   8986.50977,  -299.144806,   912.544128
   6973,   8999.00781,  -299.144806,   912.544128
   6974,   9011.50684,  -299.144806,   912.544128
   6975,   9024.00586,  -299.144806,   912.544128
   6976,   9036.50391,  -299.144806,   912.544128
   6977,   9049.00293,  -299.144806,   912.544128
   6978,   9061.50098,  -299.144806,   912.544128
   6979,   7849.13477,  -299.144806,   912.544128
   6980,   7861.63379,  -299.144806,   912.544128
   6981,   7874.13232,  -299.144806,   912.544128
   6982,   7886.63086,  -299.144806,   912.544128
   6983,   7899.12939,  -299.144806,   912.544128
   6984,   7911.62793,  -299.144806,   912.544128
   6985,   7924.12695,  -299.144806,   912.544128
   6986,   7936.62549,  -299.144806,   912.544128
   6987,   7949.12402,  -299.144806,   912.544128
   6988,   7961.62256,  -299.144806,   912.544128
   6989,   7974.12109,  -299.144806,   912.544128
   6990,   7986.61963,  -299.144806,   912.544128
   6991,   7999.11865,  -299.144806,   912.544128
   6992,   8011.61719,  -299.144806,   912.544128
   6993,   8024.11572,  -299.144806,   912.544128
   6994,   8036.61426,  -299.144806,   912.544128
   6995,   8049.11279,  -299.144806,   912.544128
   6996,   8061.61133,  -299.144806,   912.544128
   6997,   8074.11035,  -299.144806,   912.544128
   6998,   8086.60889,  -299.144806,   912.544128
   6999,   8099.10742,  -299.144806,   912.544128
   7000,   8111.60596,  -299.144806,   912.544128
   7001,   8124.10449,  -299.144806,   912.544128
   7002,   8136.60352,  -299.144806,   912.544128
   7003,   8149.10205,  -299.144806,   912.544128
   7004,   8161.60059,  -299.144806,   912.544128
   7005,   8174.09912,  -299.144806,   912.544128
   7006,   8186.59766,  -299.144806,   912.544128
   7007,   8199.09668,  -299.144806,   912.544128
   7008,   8211.59473,  -299.144806,   912.544128
   7009,   8224.09375,  -299.144806,   912.544128
   7010,   8236.59277,  -299.144806,   912.544128
   7011,   8249.09082,  -299.144806,   912.544128
   7012,   8261.58984,  -299.144806,   912.544128
   7013,   8274.08789,  -299.144806,   912.544128
   7014,   8286.58691,  -299.144806,   912.544128
   7015,   8299.08496,  -299.144806,   912.544128
   7016,   8311.58398,  -299.144806,   912.544128
   7017,   8324.08301,  -299.144806,   912.544128
   7018,   8336.58105,  -299.144806,   912.544128
   7019,   8349.08008,  -299.144806,   912.544128
   7020,   8361.57812,  -299.144806,   912.544128
   7021,   8374.07715,  -299.144806,   912.544128
   7022,   8386.57617,  -299.144806,   912.544128
   7023,   8399.07422,  -299.144806,   912.544128
   7024,   8411.57324,  -299.144806,   912.544128
   7025,   8424.07129,  -299.144806,   912.544128
   7026,   8436.57031,  -299.144806,   912.544128
   7027,   8449.06934,  -299.144806,   912.544128
   7028,   8461.56738,  -299.144806,   912.544128
   7029,   8474.06641,  -299.144806,   912.544128
   7030,   8486.56445,  -299.144806,   912.544128
   7031,   8499.06348,  -299.144806,   912.544128
   7032,   8511.56152,  -299.144806,   912.544128
   7033,   8524.06055,  -299.144806,   912.544128
   7034,   8536.55957,  -299.144806,   912.544128
   7035,   8549.05762,  -299.144806,   912.544128
   7036,   8561.55664,  -299.144806,   912.544128
   7037,   8574.05469,  -299.144806,   912.544128
   7038,   8586.55371,  -299.144806,   912.544128
   7039,   8599.05273,  -299.144806,   912.544128
   7040,   8611.55078,  -299.144806,   912.544128
   7041,    8624.0498,  -299.144806,   912.544128
   7042,   8636.54785,  -299.144806,   912.544128
   7043,   8649.04688,  -299.144806,   912.544128
   7044,   7024.22607,  -299.144806,   912.544128
   7045,   7036.72461,  -299.144806,   912.544128
   7046,   7049.22314,  -299.144806,   912.544128
   7047,   7061.72168,  -299.144806,   912.544128
   7048,   7074.22021,  -299.144806,   912.544128
   7049,   7086.71924,  -299.144806,   912.544128
   7050,   7099.21777,  -299.144806,   912.544128
   7051,   7111.71631,  -299.144806,   912.544128
   7052,   7124.21484,  -299.144806,   912.544128
   7053,   7136.71338,  -299.144806,   912.544128
   7054,   7149.21191,  -299.144806,   912.544128
   7055,   7161.71094,  -299.144806,   912.544128
   7056,   7174.20947,  -299.144806,   912.544128
   7057,   7186.70801,  -299.144806,   912.544128
   7058,   7199.20654,  -299.144806,   912.544128
   7059,   7211.70508,  -299.144806,   912.544128
   7060,   7224.20361,  -299.144806,   912.544128
   7061,   7236.70264,  -299.144806,   912.544128
   7062,   7249.20117,  -299.144806,   912.544128
   7063,   7261.69971,  -299.144806,   912.544128
   7064,   7274.19824,  -299.144806,   912.544128
   7065,   7286.69678,  -299.144806,   912.544128
   7066,    7299.1958,  -299.144806,   912.544128
   7067,   7311.69434,  -299.144806,   912.544128
   7068,   7324.19287,  -299.144806,   912.544128
   7069,   7336.69141,  -299.144806,   912.544128
   7070,   7349.18994,  -299.144806,   912.544128
   7071,   7361.68848,  -299.144806,   912.544128
   7072,    7374.1875,  -299.144806,   912.544128
   7073,   7386.68604,  -299.144806,   912.544128
   7074,   7399.18457,  -299.144806,   912.544128
   7075,   7411.68311,  -299.144806,   912.544128
   7076,   7424.18164,  -299.144806,   912.544128
   7077,   7436.68066,  -299.144806,   912.544128
   7078,    7449.1792,  -299.144806,   912.544128
   7079,   7461.67773,  -299.144806,   912.544128
   7080,   7474.17627,  -299.144806,   912.544128
   7081,    7486.6748,  -299.144806,   912.544128
   7082,   7499.17334,  -299.144806,   912.544128
   7083,   7511.67236,  -299.144806,   912.544128
   7084,    7524.1709,  -299.144806,   912.544128
   7085,   7536.66943,  -299.144806,   912.544128
   7086,   7549.16797,  -299.144806,   912.544128
   7087,    7561.6665,  -299.144806,   912.544128
   7088,   7574.16553,  -299.144806,   912.544128
   7089,   7586.66406,  -299.144806,   912.544128
   7090,    7599.1626,  -299.144806,   912.544128
   7091,   7611.66113,  -299.144806,   912.544128
   7092,   7624.15967,  -299.144806,   912.544128
   7093,    7636.6582,  -299.144806,   912.544128
   7094,   7649.15723,  -299.144806,   912.544128
   7095,   7661.65576,  -299.144806,   912.544128
   7096,    7674.1543,  -299.144806,   912.544128
   7097,   7686.65283,  -299.144806,   912.544128
   7098,   7699.15137,  -299.144806,   912.544128
   7099,    7711.6499,  -299.144806,   912.544128
   7100,   7724.14893,  -299.144806,   912.544128
   7101,   7736.64746,  -299.144806,   912.544128
   7102,     7749.146,  -299.144806,   912.544128
   7103,   7761.64453,  -299.144806,   912.544128
   7104,   7774.14307,  -299.144806,   912.544128
   7105,   7786.64209,  -299.144806,   912.544128
   7106,   7799.14062,  -299.144806,   912.544128
   7107,   7811.63916,  -299.144806,   912.544128
   7108,    7824.1377,  -299.144806,   912.544128
   7109,   6199.31689,  -299.144806,   912.544128
   7110,   6211.81543,  -299.144806,   912.544128
   7111,   6224.31396,  -299.144806,   912.544128
   7112,    6236.8125,  -299.144806,   912.544128
   7113,   6249.31152,  -299.144806,   912.544128
   7114,   6261.81006,  -299.144806,   912.544128
   7115,   6274.30859,  -299.144806,   912.544128
   7116,   6286.80713,  -299.144806,   912.544128
   7117,   6299.30566,  -299.144806,   912.544128
   7118,    6311.8042,  -299.144806,   912.544128
   7119,   6324.30322,  -299.144806,   912.544128
   7120,   6336.80176,  -299.144806,   912.544128
   7121,   6349.30029,  -299.144806,   912.544128
   7122,   6361.79883,  -299.144806,   912.544128
   7123,   6374.29736,  -299.144806,   912.544128
   7124,   6386.79639,  -299.144806,   912.544128
   7125,   6399.29492,  -299.144806,   912.544128
   7126,   6411.79346,  -299.144806,   912.544128
   7127,   6424.29199,  -299.144806,   912.544128
   7128,   6436.79053,  -299.144806,   912.544128
   7129,   6449.28906,  -299.144806,   912.544128
   7130,   6461.78809,  -299.144806,   912.544128
   7131,   6474.28662,  -299.144806,   912.544128
   7132,   6486.78516,  -299.144806,   912.544128
   7133,   6499.28369,  -299.144806,   912.544128
   7134,   6511.78223,  -299.144806,   912.544128
   7135,   6524.28076,  -299.144806,   912.544128
   7136,   6536.77979,  -299.144806,   912.544128
   7137,   6549.27832,  -299.144806,   912.544128
   7138,   6561.77686,  -299.144806,   912.544128
   7139,   6574.27539,  -299.144806,   912.544128
   7140,   6586.77393,  -299.144806,   912.544128
   7141,   6599.27295,  -299.144806,   912.544128
   7142,   6611.77148,  -299.144806,   912.544128
   7143,   6624.27002,  -299.144806,   912.544128
   7144,   6636.76855,  -299.144806,   912.544128
   7145,   6649.26709,  -299.144806,   912.544128
   7146,   6661.76562,  -299.144806,   912.544128
   7147,   6674.26465,  -299.144806,   912.544128
   7148,   6686.76318,  -299.144806,   912.544128
   7149,   6699.26172,  -299.144806,   912.544128
   7150,   6711.76025,  -299.144806,   912.544128
   7151,   6724.25879,  -299.144806,   912.544128
   7152,   6736.75781,  -299.144806,   912.544128
   7153,   6749.25635,  -299.144806,   912.544128
   7154,   6761.75488,  -299.144806,   912.544128
   7155,   6774.25342,  -299.144806,   912.544128
   7156,   6786.75195,  -299.144806,   912.544128
   7157,   6799.25049,  -299.144806,   912.544128
   7158,   6811.74951,  -299.144806,   912.544128
   7159,   6824.24805,  -299.144806,   912.544128
   7160,   6836.74658,  -299.144806,   912.544128
   7161,   6849.24512,  -299.144806,   912.544128
   7162,   6861.74365,  -299.144806,   912.544128
   7163,   6874.24219,  -299.144806,   912.544128
   7164,   6886.74121,  -299.144806,   912.544128
   7165,   6899.23975,  -299.144806,   912.544128
   7166,   6911.73828,  -299.144806,   912.544128
   7167,   6924.23682,  -299.144806,   912.544128
   7168,   6936.73535,  -299.144806,   912.544128
   7169,   6949.23438,  -299.144806,   912.544128
   7170,   6961.73291,  -299.144806,   912.544128
   7171,   6974.23145,  -299.144806,   912.544128
   7172,   6986.72998,  -299.144806,   912.544128
   7173,   6999.22852,  -299.144806,   912.544128
   7174,   5374.40771,  -299.144806,   912.544128
   7175,   5386.90625,  -299.144806,   912.544128
   7176,   5399.40479,  -299.144806,   912.544128
   7177,   5411.90381,  -299.144806,   912.544128
   7178,   5424.40234,  -299.144806,   912.544128
   7179,   5436.90088,  -299.144806,   912.544128
   7180,   5449.39941,  -299.144806,   912.544128
   7181,   5461.89795,  -299.144806,   912.544128
   7182,   5474.39648,  -299.144806,   912.544128
   7183,   5486.89551,  -299.144806,   912.544128
   7184,   5499.39404,  -299.144806,   912.544128
   7185,   5511.89258,  -299.144806,   912.544128
   7186,   5524.39111,  -299.144806,   912.544128
   7187,   5536.88965,  -299.144806,   912.544128
   7188,   5549.38867,  -299.144806,   912.544128
   7189,   5561.88721,  -299.144806,   912.544128
   7190,   5574.38574,  -299.144806,   912.544128
   7191,   5586.88428,  -299.144806,   912.544128
   7192,   5599.38281,  -299.144806,   912.544128
   7193,   5611.88135,  -299.144806,   912.544128
   7194,   5624.38037,  -299.144806,   912.544128
   7195,   5636.87891,  -299.144806,   912.544128
   7196,   5649.37744,  -299.144806,   912.544128
   7197,   5661.87598,  -299.144806,   912.544128
   7198,   5674.37451,  -299.144806,   912.544128
   7199,   5686.87305,  -299.144806,   912.544128
   7200,   5699.37207,  -299.144806,   912.544128
   7201,   5711.87061,  -299.144806,   912.544128
   7202,   5724.36914,  -299.144806,   912.544128
   7203,   5736.86768,  -299.144806,   912.544128
   7204,   5749.36621,  -299.144806,   912.544128
   7205,   5761.86523,  -299.144806,   912.544128
   7206,   5774.36377,  -299.144806,   912.544128
   7207,    5786.8623,  -299.144806,   912.544128
   7208,   5799.36084,  -299.144806,   912.544128
   7209,   5811.85938,  -299.144806,   912.544128
   7210,   5824.35791,  -299.144806,   912.544128
   7211,   5836.85693,  -299.144806,   912.544128
   7212,   5849.35547,  -299.144806,   912.544128
   7213,     5861.854,  -299.144806,   912.544128
   7214,   5874.35254,  -299.144806,   912.544128
   7215,   5886.85107,  -299.144806,   912.544128
   7216,    5899.3501,  -299.144806,   912.544128
   7217,   5911.84863,  -299.144806,   912.544128
   7218,   5924.34717,  -299.144806,   912.544128
   7219,    5936.8457,  -299.144806,   912.544128
   7220,   5949.34424,  -299.144806,   912.544128
   7221,   5961.84277,  -299.144806,   912.544128
   7222,    5974.3418,  -299.144806,   912.544128
   7223,   5986.84033,  -299.144806,   912.544128
   7224,   5999.33887,  -299.144806,   912.544128
   7225,    6011.8374,  -299.144806,   912.544128
   7226,   6024.33594,  -299.144806,   912.544128
   7227,   6036.83447,  -299.144806,   912.544128
   7228,    6049.3335,  -299.144806,   912.544128
   7229,   6061.83203,  -299.144806,   912.544128
   7230,   6074.33057,  -299.144806,   912.544128
   7231,    6086.8291,  -299.144806,   912.544128
   7232,   6099.32764,  -299.144806,   912.544128
   7233,   6111.82666,  -299.144806,   912.544128
   7234,    6124.3252,  -299.144806,   912.544128
   7235,   6136.82373,  -299.144806,   912.544128
   7236,   6149.32227,  -299.144806,   912.544128
   7237,    6161.8208,  -299.144806,   912.544128
   7238,   6174.31934,  -299.144806,   912.544128
   7239,   4549.49854,  -299.144806,   912.544128
   7240,   4561.99707,  -299.144806,   912.544128
   7241,   4574.49609,  -299.144806,   912.544128
   7242,   4586.99463,  -299.144806,   912.544128
   7243,   4599.49316,  -299.144806,   912.544128
   7244,    4611.9917,  -299.144806,   912.544128
   7245,   4624.49023,  -299.144806,   912.544128
   7246,   4636.98877,  -299.144806,   912.544128
   7247,   4649.48779,  -299.144806,   912.544128
   7248,   4661.98633,  -299.144806,   912.544128
   7249,   4674.48486,  -299.144806,   912.544128
   7250,    4686.9834,  -299.144806,   912.544128
   7251,   4699.48193,  -299.144806,   912.544128
   7252,   4711.98096,  -299.144806,   912.544128
   7253,   4724.47949,  -299.144806,   912.544128
   7254,   4736.97803,  -299.144806,   912.544128
   7255,   4749.47656,  -299.144806,   912.544128
   7256,    4761.9751,  -299.144806,   912.544128
   7257,   4774.47363,  -299.144806,   912.544128
   7258,   4786.97266,  -299.144806,   912.544128
   7259,   4799.47119,  -299.144806,   912.544128
   7260,   4811.96973,  -299.144806,   912.544128
   7261,   4824.46826,  -299.144806,   912.544128
   7262,    4836.9668,  -299.144806,   912.544128
   7263,   4849.46533,  -299.144806,   912.544128
   7264,   4861.96436,  -299.144806,   912.544128
   7265,   4874.46289,  -299.144806,   912.544128
   7266,   4886.96143,  -299.144806,   912.544128
   7267,   4899.45996,  -299.144806,   912.544128
   7268,    4911.9585,  -299.144806,   912.544128
   7269,   4924.45752,  -299.144806,   912.544128
   7270,   4936.95605,  -299.144806,   912.544128
   7271,   4949.45459,  -299.144806,   912.544128
   7272,   4961.95312,  -299.144806,   912.544128
   7273,   4974.45166,  -299.144806,   912.544128
   7274,    4986.9502,  -299.144806,   912.544128
   7275,   4999.44922,  -299.144806,   912.544128
   7276,   5011.94775,  -299.144806,   912.544128
   7277,   5024.44629,  -299.144806,   912.544128
   7278,   5036.94482,  -299.144806,   912.544128
   7279,   5049.44336,  -299.144806,   912.544128
   7280,   5061.94238,  -299.144806,   912.544128
   7281,   5074.44092,  -299.144806,   912.544128
   7282,   5086.93945,  -299.144806,   912.544128
   7283,   5099.43799,  -299.144806,   912.544128
   7284,   5111.93652,  -299.144806,   912.544128
   7285,   5124.43506,  -299.144806,   912.544128
   7286,   5136.93408,  -299.144806,   912.544128
   7287,   5149.43262,  -299.144806,   912.544128
   7288,   5161.93115,  -299.144806,   912.544128
   7289,   5174.42969,  -299.144806,   912.544128
   7290,   5186.92822,  -299.144806,   912.544128
   7291,   5199.42676,  -299.144806,   912.544128
   7292,   5211.92578,  -299.144806,   912.544128
   7293,   5224.42432,  -299.144806,   912.544128
   7294,   5236.92285,  -299.144806,   912.544128
   7295,   5249.42139,  -299.144806,   912.544128
   7296,   5261.91992,  -299.144806,   912.544128
   7297,   5274.41895,  -299.144806,   912.544128
   7298,   5286.91748,  -299.144806,   912.544128
   7299,   5299.41602,  -299.144806,   912.544128
   7300,   5311.91455,  -299.144806,   912.544128
   7301,   5324.41309,  -299.144806,   912.544128
   7302,   5336.91162,  -299.144806,   912.544128
   7303,   5349.41064,  -299.144806,   912.544128
   7304,    3724.5896,  -299.144806,   912.544128
   7305,   3737.08813,  -299.144806,   912.544128
   7306,   3749.58667,  -299.144806,   912.544128
   7307,   3762.08545,  -299.144806,   912.544128
   7308,   3774.58398,  -299.144806,   912.544128
   7309,   3787.08276,  -299.144806,   912.544128
   7310,    3799.5813,  -299.144806,   912.544128
   7311,   3812.07983,  -299.144806,   912.544128
   7312,   3824.57861,  -299.144806,   912.544128
   7313,   3837.07715,  -299.144806,   912.544128
   7314,   3849.57568,  -299.144806,   912.544128
   7315,   3862.07446,  -299.144806,   912.544128
   7316,     3874.573,  -299.144806,   912.544128
   7317,   3887.07153,  -299.144806,   912.544128
   7318,   3899.57031,  -299.144806,   912.544128
   7319,   3912.06885,  -299.144806,   912.544128
   7320,   3924.56738,  -299.144806,   912.544128
   7321,   3937.06616,  -299.144806,   912.544128
   7322,    3949.5647,  -299.144806,   912.544128
   7323,   3962.06348,  -299.144806,   912.544128
   7324,   3974.56201,  -299.144806,   912.544128
   7325,   3987.06055,  -299.144806,   912.544128
   7326,   3999.55933,  -299.144806,   912.544128
   7327,   4012.05786,  -299.144806,   912.544128
   7328,    4024.5564,  -299.144806,   912.544128
   7329,   4037.05518,  -299.144806,   912.544128
   7330,   4049.55371,  -299.144806,   912.544128
   7331,   4062.05225,  -299.144806,   912.544128
   7332,   4074.55103,  -299.144806,   912.544128
   7333,   4087.04956,  -299.144806,   912.544128
   7334,   4099.54834,  -299.144806,   912.544128
   7335,   4112.04688,  -299.144806,   912.544128
   7336,   4124.54541,  -299.144806,   912.544128
   7337,   4137.04395,  -299.144806,   912.544128
   7338,   4149.54248,  -299.144806,   912.544128
   7339,    4162.0415,  -299.144806,   912.544128
   7340,   4174.54004,  -299.144806,   912.544128
   7341,   4187.03857,  -299.144806,   912.544128
   7342,   4199.53711,  -299.144806,   912.544128
   7343,   4212.03564,  -299.144806,   912.544128
   7344,   4224.53467,  -299.144806,   912.544128
   7345,    4237.0332,  -299.144806,   912.544128
   7346,   4249.53174,  -299.144806,   912.544128
   7347,   4262.03027,  -299.144806,   912.544128
   7348,   4274.52881,  -299.144806,   912.544128
   7349,   4287.02734,  -299.144806,   912.544128
   7350,   4299.52637,  -299.144806,   912.544128
   7351,    4312.0249,  -299.144806,   912.544128
   7352,   4324.52344,  -299.144806,   912.544128
   7353,   4337.02197,  -299.144806,   912.544128
   7354,   4349.52051,  -299.144806,   912.544128
   7355,   4362.01904,  -299.144806,   912.544128
   7356,   4374.51807,  -299.144806,   912.544128
   7357,    4387.0166,  -299.144806,   912.544128
   7358,   4399.51514,  -299.144806,   912.544128
   7359,   4412.01367,  -299.144806,   912.544128
   7360,   4424.51221,  -299.144806,   912.544128
   7361,   4437.01123,  -299.144806,   912.544128
   7362,   4449.50977,  -299.144806,   912.544128
   7363,    4462.0083,  -299.144806,   912.544128
   7364,   4474.50684,  -299.144806,   912.544128
   7365,   4487.00537,  -299.144806,   912.544128
   7366,   4499.50391,  -299.144806,   912.544128
   7367,   4512.00293,  -299.144806,   912.544128
   7368,   4524.50146,  -299.144806,   912.544128
   7369,   2899.68042,  -299.144806,   912.544128
   7370,   2912.17896,  -299.144806,   912.544128
   7371,   2924.67773,  -299.144806,   912.544128
   7372,   2937.17627,  -299.144806,   912.544128
   7373,   2949.67505,  -299.144806,   912.544128
   7374,   2962.17358,  -299.144806,   912.544128
   7375,   2974.67212,  -299.144806,   912.544128
   7376,    2987.1709,  -299.144806,   912.544128
   7377,   2999.66943,  -299.144806,   912.544128
   7378,   3012.16797,  -299.144806,   912.544128
   7379,   3024.66675,  -299.144806,   912.544128
   7380,   3037.16528,  -299.144806,   912.544128
   7381,   3049.66382,  -299.144806,   912.544128
   7382,    3062.1626,  -299.144806,   912.544128
   7383,   3074.66113,  -299.144806,   912.544128
   7384,   3087.15967,  -299.144806,   912.544128
   7385,   3099.65845,  -299.144806,   912.544128
   7386,   3112.15698,  -299.144806,   912.544128
   7387,   3124.65576,  -299.144806,   912.544128
   7388,    3137.1543,  -299.144806,   912.544128
   7389,   3149.65283,  -299.144806,   912.544128
   7390,   3162.15161,  -299.144806,   912.544128
   7391,   3174.65015,  -299.144806,   912.544128
   7392,   3187.14868,  -299.144806,   912.544128
   7393,   3199.64746,  -299.144806,   912.544128
   7394,     3212.146,  -299.144806,   912.544128
   7395,   3224.64453,  -299.144806,   912.544128
   7396,   3237.14331,  -299.144806,   912.544128
   7397,   3249.64185,  -299.144806,   912.544128
   7398,   3262.14038,  -299.144806,   912.544128
   7399,   3274.63916,  -299.144806,   912.544128
   7400,    3287.1377,  -299.144806,   912.544128
   7401,   3299.63647,  -299.144806,   912.544128
   7402,   3312.13501,  -299.144806,   912.544128
   7403,   3324.63354,  -299.144806,   912.544128
   7404,   3337.13232,  -299.144806,   912.544128
   7405,   3349.63086,  -299.144806,   912.544128
   7406,   3362.12939,  -299.144806,   912.544128
   7407,   3374.62817,  -299.144806,   912.544128
   7408,   3387.12671,  -299.144806,   912.544128
   7409,   3399.62524,  -299.144806,   912.544128
   7410,   3412.12402,  -299.144806,   912.544128
   7411,   3424.62256,  -299.144806,   912.544128
   7412,   3437.12109,  -299.144806,   912.544128
   7413,   3449.61987,  -299.144806,   912.544128
   7414,   3462.11841,  -299.144806,   912.544128
   7415,   3474.61719,  -299.144806,   912.544128
   7416,   3487.11572,  -299.144806,   912.544128
   7417,   3499.61426,  -299.144806,   912.544128
   7418,   3512.11304,  -299.144806,   912.544128
   7419,   3524.61157,  -299.144806,   912.544128
   7420,   3537.11011,  -299.144806,   912.544128
   7421,   3549.60889,  -299.144806,   912.544128
   7422,   3562.10742,  -299.144806,   912.544128
   7423,   3574.60596,  -299.144806,   912.544128
   7424,   3587.10474,  -299.144806,   912.544128
   7425,   3599.60327,  -299.144806,   912.544128
   7426,   3612.10181,  -299.144806,   912.544128
   7427,   3624.60059,  -299.144806,   912.544128
   7428,   3637.09912,  -299.144806,   912.544128
   7429,    3649.5979,  -299.144806,   912.544128
   7430,   3662.09644,  -299.144806,   912.544128
   7431,   3674.59497,  -299.144806,   912.544128
   7432,   3687.09375,  -299.144806,   912.544128
   7433,   3699.59229,  -299.144806,   912.544128
   7434,   2074.77124,  -299.144806,   912.544128
   7435,   2087.27002,  -299.144806,   912.544128
   7436,   2099.76855,  -299.144806,   912.544128
   7437,   2112.26733,  -299.144806,   912.544128
   7438,   2124.76587,  -299.144806,   912.544128
   7439,    2137.2644,  -299.144806,   912.544128
   7440,   2149.76318,  -299.144806,   912.544128
   7441,   2162.26172,  -299.144806,   912.544128
   7442,   2174.76025,  -299.144806,   912.544128
   7443,   2187.25903,  -299.144806,   912.544128
   7444,   2199.75757,  -299.144806,   912.544128
   7445,    2212.2561,  -299.144806,   912.544128
   7446,   2224.75488,  -299.144806,   912.544128
   7447,   2237.25342,  -299.144806,   912.544128
   7448,   2249.75195,  -299.144806,   912.544128
   7449,   2262.25073,  -299.144806,   912.544128
   7450,   2274.74927,  -299.144806,   912.544128
   7451,   2287.24805,  -299.144806,   912.544128
   7452,   2299.74658,  -299.144806,   912.544128
   7453,   2312.24512,  -299.144806,   912.544128
   7454,    2324.7439,  -299.144806,   912.544128
   7455,   2337.24243,  -299.144806,   912.544128
   7456,   2349.74097,  -299.144806,   912.544128
   7457,   2362.23975,  -299.144806,   912.544128
   7458,   2374.73828,  -299.144806,   912.544128
   7459,   2387.23682,  -299.144806,   912.544128
   7460,    2399.7356,  -299.144806,   912.544128
   7461,   2412.23413,  -299.144806,   912.544128
   7462,   2424.73267,  -299.144806,   912.544128
   7463,   2437.23145,  -299.144806,   912.544128
   7464,   2449.72998,  -299.144806,   912.544128
   7465,   2462.22876,  -299.144806,   912.544128
   7466,   2474.72729,  -299.144806,   912.544128
   7467,   2487.22583,  -299.144806,   912.544128
   7468,   2499.72461,  -299.144806,   912.544128
   7469,   2512.22314,  -299.144806,   912.544128
   7470,   2524.72168,  -299.144806,   912.544128
   7471,   2537.22046,  -299.144806,   912.544128
   7472,   2549.71899,  -299.144806,   912.544128
   7473,   2562.21753,  -299.144806,   912.544128
   7474,   2574.71631,  -299.144806,   912.544128
   7475,   2587.21484,  -299.144806,   912.544128
   7476,   2599.71338,  -299.144806,   912.544128
   7477,   2612.21216,  -299.144806,   912.544128
   7478,   2624.71069,  -299.144806,   912.544128
   7479,   2637.20947,  -299.144806,   912.544128
   7480,   2649.70801,  -299.144806,   912.544128
   7481,   2662.20654,  -299.144806,   912.544128
   7482,   2674.70532,  -299.144806,   912.544128
   7483,   2687.20386,  -299.144806,   912.544128
   7484,   2699.70239,  -299.144806,   912.544128
   7485,   2712.20117,  -299.144806,   912.544128
   7486,   2724.69971,  -299.144806,   912.544128
   7487,   2737.19824,  -299.144806,   912.544128
   7488,   2749.69702,  -299.144806,   912.544128
   7489,   2762.19556,  -299.144806,   912.544128
   7490,   2774.69434,  -299.144806,   912.544128
   7491,   2787.19287,  -299.144806,   912.544128
   7492,   2799.69141,  -299.144806,   912.544128
   7493,   2812.19019,  -299.144806,   912.544128
   7494,   2824.68872,  -299.144806,   912.544128
   7495,   2837.18726,  -299.144806,   912.544128
   7496,   2849.68604,  -299.144806,   912.544128
   7497,   2862.18457,  -299.144806,   912.544128
   7498,   2874.68311,  -299.144806,   912.544128
   7499,    1249.8623,  -299.144806,   912.544128
   7500,   1262.36084,  -299.144806,   912.544128
   7501,    1274.8595,  -299.144806,   912.544128
   7502,   1287.35815,  -299.144806,   912.544128
   7503,   1299.85669,  -299.144806,   912.544128
   7504,   1312.35535,  -299.144806,   912.544128
   7505,     1324.854,  -299.144806,   912.544128
   7506,   1337.35266,  -299.144806,   912.544128
   7507,    1349.8512,  -299.144806,   912.544128
   7508,   1362.34985,  -299.144806,   912.544128
   7509,   1374.84851,  -299.144806,   912.544128
   7510,   1387.34717,  -299.144806,   912.544128
   7511,    1399.8457,  -299.144806,   912.544128
   7512,   1412.34436,  -299.144806,   912.544128
   7513,   1424.84302,  -299.144806,   912.544128
   7514,   1437.34155,  -299.144806,   912.544128
   7515,   1449.84021,  -299.144806,   912.544128
   7516,   1462.33887,  -299.144806,   912.544128
   7517,   1474.83752,  -299.144806,   912.544128
   7518,   1487.33606,  -299.144806,   912.544128
   7519,   1499.83472,  -299.144806,   912.544128
   7520,   1512.33337,  -299.144806,   912.544128
   7521,   1524.83191,  -299.144806,   912.544128
   7522,   1537.33057,  -299.144806,   912.544128
   7523,   1549.82922,  -299.144806,   912.544128
   7524,   1562.32788,  -299.144806,   912.544128
   7525,   1574.82642,  -299.144806,   912.544128
   7526,   1587.32507,  -299.144806,   912.544128
   7527,   1599.82373,  -299.144806,   912.544128
   7528,   1612.32227,  -299.144806,   912.544128
   7529,   1624.82092,  -299.144806,   912.544128
   7530,   1637.31958,  -299.144806,   912.544128
   7531,   1649.81824,  -299.144806,   912.544128
   7532,   1662.31677,  -299.144806,   912.544128
   7533,   1674.81543,  -299.144806,   912.544128
   7534,   1687.31409,  -299.144806,   912.544128
   7535,   1699.81262,  -299.144806,   912.544128
   7536,   1712.31128,  -299.144806,   912.544128
   7537,   1724.80994,  -299.144806,   912.544128
   7538,   1737.30859,  -299.144806,   912.544128
   7539,   1749.80713,  -299.144806,   912.544128
   7540,   1762.30579,  -299.144806,   912.544128
   7541,   1774.80444,  -299.144806,   912.544128
   7542,   1787.30298,  -299.144806,   912.544128
   7543,   1799.80164,  -299.144806,   912.544128
   7544,   1812.30029,  -299.144806,   912.544128
   7545,   1824.79895,  -299.144806,   912.544128
   7546,   1837.29749,  -299.144806,   912.544128
   7547,   1849.79614,  -299.144806,   912.544128
   7548,    1862.2948,  -299.144806,   912.544128
   7549,   1874.79333,  -299.144806,   912.544128
   7550,   1887.29199,  -299.144806,   912.544128
   7551,   1899.79065,  -299.144806,   912.544128
   7552,   1912.28931,  -299.144806,   912.544128
   7553,   1924.78784,  -299.144806,   912.544128
   7554,    1937.2865,  -299.144806,   912.544128
   7555,   1949.78516,  -299.144806,   912.544128
   7556,   1962.28369,  -299.144806,   912.544128
   7557,   1974.78235,  -299.144806,   912.544128
   7558,   1987.28101,  -299.144806,   912.544128
   7559,   1999.77966,  -299.144806,   912.544128
   7560,    2012.2782,  -299.144806,   912.544128
   7561,   2024.77686,  -299.144806,   912.544128
   7562,   2037.27551,  -299.144806,   912.544128
   7563,   2049.77417,  -299.144806,   912.544128
   7564,   424.953156,  -299.144806,   912.544128
   7565,   437.451782,  -299.144806,   912.544128
   7566,   449.950409,  -299.144806,   912.544128
   7567,   462.449036,  -299.144806,   912.544128
   7568,   474.947662,  -299.144806,   912.544128
   7569,   487.446289,  -299.144806,   912.544128
   7570,   499.944916,  -299.144806,   912.544128
   7571,   512.443542,  -299.144806,   912.544128
   7572,   524.942139,  -299.144806,   912.544128
   7573,   537.440796,  -299.144806,   912.544128
   7574,   549.939392,  -299.144806,   912.544128
   7575,   562.437988,  -299.144806,   912.544128
   7576,   574.936646,  -299.144806,   912.544128
   7577,   587.435242,  -299.144806,   912.544128
   7578,   599.933899,  -299.144806,   912.544128
   7579,   612.432495,  -299.144806,   912.544128
   7580,   624.931152,  -299.144806,   912.544128
   7581,   637.429749,  -299.144806,   912.544128
   7582,   649.928345,  -299.144806,   912.544128
   7583,   662.427002,  -299.144806,   912.544128
   7584,   674.925598,  -299.144806,   912.544128
   7585,   687.424255,  -299.144806,   912.544128
   7586,   699.922852,  -299.144806,   912.544128
   7587,   712.421509,  -299.144806,   912.544128
   7588,   724.920105,  -299.144806,   912.544128
   7589,   737.418762,  -299.144806,   912.544128
   7590,   749.917358,  -299.144806,   912.544128
   7591,   762.415955,  -299.144806,   912.544128
   7592,   774.914612,  -299.144806,   912.544128
   7593,   787.413208,  -299.144806,   912.544128
   7594,   799.911865,  -299.144806,   912.544128
   7595,   812.410461,  -299.144806,   912.544128
   7596,   824.909119,  -299.144806,   912.544128
   7597,   837.407715,  -299.144806,   912.544128
   7598,   849.906311,  -299.144806,   912.544128
   7599,   862.404968,  -299.144806,   912.544128
   7600,   874.903564,  -299.144806,   912.544128
   7601,   887.402222,  -299.144806,   912.544128
   7602,   899.900818,  -299.144806,   912.544128
   7603,   912.399475,  -299.144806,   912.544128
   7604,   924.898071,  -299.144806,   912.544128
   7605,   937.396667,  -299.144806,   912.544128
   7606,   949.895325,  -299.144806,   912.544128
   7607,   962.393921,  -299.144806,   912.544128
   7608,   974.892578,  -299.144806,   912.544128
   7609,   987.391174,  -299.144806,   912.544128
   7610,   999.889832,  -299.144806,   912.544128
   7611,   1012.38843,  -299.144806,   912.544128
   7612,   1024.88708,  -299.144806,   912.544128
   7613,   1037.38562,  -299.144806,   912.544128
   7614,   1049.88428,  -299.144806,   912.544128
   7615,   1062.38293,  -299.144806,   912.544128
   7616,   1074.88159,  -299.144806,   912.544128
   7617,   1087.38013,  -299.144806,   912.544128
   7618,   1099.87878,  -299.144806,   912.544128
   7619,   1112.37744,  -299.144806,   912.544128
   7620,   1124.87598,  -299.144806,   912.544128
   7621,   1137.37463,  -299.144806,   912.544128
   7622,   1149.87329,  -299.144806,   912.544128
   7623,   1162.37195,  -299.144806,   912.544128
   7624,   1174.87048,  -299.144806,   912.544128
   7625,   1187.36914,  -299.144806,   912.544128
   7626,    1199.8678,  -299.144806,   912.544128
   7627,   1212.36633,  -299.144806,   912.544128
   7628,   1224.86499,  -299.144806,   912.544128
   7629,   12.4986229,  -299.144806,   912.544128
   7630,   24.9972458,  -299.144806,   912.544128
   7631,   37.4958687,  -299.144806,   912.544128
   7632,   49.9944916,  -299.144806,   912.544128
   7633,   62.4931145,  -299.144806,   912.544128
   7634,   74.9917374,  -299.144806,   912.544128
   7635,   87.4903564,  -299.144806,   912.544128
   7636,   99.9889832,  -299.144806,   912.544128
   7637,   112.487602,  -299.144806,   912.544128
   7638,   124.986229,  -299.144806,   912.544128
   7639,   137.484848,  -299.144806,   912.544128
   7640,   149.983475,  -299.144806,   912.544128
   7641,   162.482086,  -299.144806,   912.544128
   7642,   174.980713,  -299.144806,   912.544128
   7643,    187.47934,  -299.144806,   912.544128
   7644,   199.977966,  -299.144806,   912.544128
   7645,   212.476578,  -299.144806,   912.544128
   7646,   224.975204,  -299.144806,   912.544128
   7647,   237.473831,  -299.144806,   912.544128
   7648,   249.972458,  -299.144806,   912.544128
   7649,   262.471069,  -299.144806,   912.544128
   7650,   274.969696,  -299.144806,   912.544128
   7651,   287.468323,  -299.144806,   912.544128
   7652,   299.966949,  -299.144806,   912.544128
   7653,   312.465576,  -299.144806,   912.544128
   7654,   324.964172,  -299.144806,   912.544128
   7655,   337.462799,  -299.144806,   912.544128
   7656,   349.961426,  -299.144806,   912.544128
   7657,   362.460052,  -299.144806,   912.544128
   7658,   374.958679,  -299.144806,   912.544128
   7659,   387.457306,  -299.144806,   912.544128
   7660,   399.955933,  -299.144806,   912.544128
   7661,       13611.,   2134.36011,   429.310242
   7662,       13611.,   2134.36011,   441.850464
   7663,       13611.,   2134.36011,   454.390686
   7664,       13611.,   2134.36011,   466.930908
   7665,       13611.,   2134.36011,   479.471161
   7666,       13611.,   2134.36011,   492.011383
   7667,       13611.,   2134.36011,   504.551605
   7668,       13611.,   2134.36011,   517.091858
   7669,       13611.,   2134.36011,    529.63208
   7670,       13611.,   2134.36011,   542.172302
   7671,       13611.,   2134.36011,   554.712524
   7672,       13611.,   2134.36011,   567.252747
   7673,       13611.,   2134.36011,    579.79303
   7674,       13611.,   2134.36011,   592.333252
   7675,       13611.,   2134.36011,   604.873474
   7676,       13611.,   2134.36011,   617.413696
   7677,       13611.,   2134.36011,   629.953918
   7678,       13611.,   2134.36011,   642.494141
   7679,       13611.,   2134.36011,   655.034363
   7680,       13611.,   2134.36011,   667.574585
   7681,       13611.,   2134.36011,   680.114868
   7682,       13611.,   2134.36011,    692.65509
   7683,       13611.,   2134.36011,   705.195312
   7684,       13611.,   2134.36011,   717.735535
   7685,       13611.,   2134.36011,   730.275757
   7686,       13611.,   2134.36011,   742.815979
   7687,       13611.,   2134.36011,   755.356201
   7688,       13611.,   2134.36011,   767.896484
   7689,       13611.,   2134.36011,   780.436707
   7690,       13611.,   2134.36011,   792.976929
   7691,       13611.,   2134.36011,   805.517151
   7692,       13611.,   2134.36011,   818.057373
   7693,       13611.,   2134.36011,   830.597595
   7694,       13611.,   2134.36011,   843.137817
   7695,       13611.,   2134.36011,   855.678101
   7696,       13611.,   2134.36011,   868.218323
   7697,       13611.,   2134.36011,   880.758545
   7698,       13611.,   2134.36011,   893.298767
   7699,       13611.,   2134.36011,   905.838989
   7700,       13611.,   2134.36011,   918.379211
   7701,       13611.,   2134.36011,   930.919434
   7702,       13611.,   2134.36011,   943.459717
   7703,       13611.,   2134.36011,   955.999939
   7704,       13611.,   2134.36011,   968.540161
   7705,       13611.,   2134.36011,   981.080383
   7706,       13611.,   2134.36011,   993.620605
   7707,       13611.,   2134.36011,   1006.16083
   7708,       13611.,   2134.36011,   1018.70105
   7709,       13611.,   2134.36011,   1031.24133
   7710,       13611.,   2134.36011,   1043.78149
   7711,       13611.,   2134.36011,   1056.32178
   7712,       13611.,   2134.36011,   1068.86206
   7713,       13611.,   2134.36011,   1081.40222
   7714,       13611.,   2134.36011,    1093.9425
   7715,       13611.,   2134.36011,   1106.48267
   7716,       13611.,   2134.36011,   1119.02295
   7717,       13611.,   2134.36011,   1131.56311
   7718,       13611.,   2134.36011,   1144.10339
   7719,       13611.,   2134.36011,   1156.64355
   7720,       13611.,   2134.36011,   1169.18384
   7721,       13611.,   2134.36011,   1181.72412
   7722,       13611.,   2134.36011,   1194.26428
   7723,       13611.,   2134.36011,   1206.80457
   7724,       13611.,   2134.36011,   1219.34473
   7725,       13611.,   2134.36011,   1231.88501
   7726,       13611.,   2134.36011,   1244.42517
   7727,       13611.,   2134.36011,   1256.96545
   7728,       13611.,   2134.36011,   1269.50574
   7729,       13611.,   2134.36011,    1282.0459
   7730,       13611.,   2134.36011,   1294.58618
   7731,       13611.,   2134.36011,   1307.12634
   7732,       13611.,   2134.36011,   1319.66663
   7733,       13611.,   2134.36011,   1332.20679
   7734,       13611.,   2134.36011,   1344.74707
   7735,       13611.,   2134.36011,   1357.28735
   7736,       13611.,   2134.36011,   1369.82751
   7737,       13611.,   2134.36011,    1382.3678
   7738,       13611.,   2134.36011,   1394.90796
   7739,       13611.,   2134.36011,   1407.44824
   7740,       13611.,   2134.36011,    1419.9884
   7741,       13611.,   2134.36011,   1432.52869
   7742,       13611.,   2134.36011,   1445.06897
   7743,       13611.,   2134.36011,   1457.60913
   7744,       13611.,   2134.36011,   1470.14941
   7745,       13611.,   2134.36011,   1482.68958
   7746,       13611.,   2134.36011,   1495.22986
   7747,       13611.,   2134.36011,   1507.77002
   7748,       13611.,   2134.36011,    1520.3103
   7749,       13611.,   2134.36011,   1532.85059
   7750,       13611.,   2134.36011,   1545.39075
   7751,       13611.,   2134.36011,   1557.93103
   7752,       13611.,   2134.36011,   1570.47119
   7753,       13611.,   2134.36011,   1583.01147
   7754,       13611.,   2134.36011,   1595.55164
   7755,       13611.,   2134.36011,   1608.09192
   7756,       13611.,   2134.36011,    1620.6322
   7757,       13611.,   2134.36011,   1633.17236
   7758,       13611.,   2134.36011,   1645.71265
   7759,       13611.,   2134.36011,   1658.25281
   7760,       13611.,   2134.36011,   1670.79309
   7761,       13611.,   2134.36011,   1683.33325
   7762,       13611.,   2134.36011,   1695.87354
   7763,       13611.,   2134.36011,   1708.41382
   7764,       13611.,   2134.36011,   1720.95398
   7765,       13611.,   2134.36011,   1733.49426
   7766,       13611.,   2134.36011,   1746.03442
   7767,       13611.,   2134.36011,   1758.57471
   7768,       13611.,   2134.36011,   1771.11487
   7769,       13611.,   2134.36011,   1783.65515
   7770,       13611.,   2134.36011,   1796.19543
   7771,       13611.,   2134.36011,    1808.7356
   7772,       13611.,   2134.36011,   1821.27588
   7773,       13611.,   2134.36011,   1833.81604
   7774,       13611.,   2134.36011,   1846.35632
   7775,       13611.,   2134.36011,   1858.89648
   7776,       13611.,   2134.36011,   1871.43677
   7777,       13611.,   2134.36011,   1883.97705
   7778,       13611.,   2134.36011,   1896.51721
   7779,       13611.,   2134.36011,    1909.0575
   7780,       13611.,   2134.36011,   1921.59766
   7781,       13611.,   2134.36011,   1934.13794
   7782,       13611.,   2134.36011,    1946.6781
   7783,       13611.,   2134.36011,   1959.21838
   7784,       13611.,   2134.36011,   1971.75867
   7785,       13611.,   2134.36011,   1984.29883
   7786,       13611.,   2134.36011,   1996.83911
   7787,       13611.,   2134.36011,   2009.37927
   7788,       13611.,   2134.36011,   2021.91956
   7789,       13611.,   2134.36011,   2034.45972
   7790,       13611.,   2134.36011,   12.6293936
   7791,       13611.,   2134.36011,   25.2587872
   7792,       13611.,   2134.36011,   37.8881836
   7793,       13611.,   2134.36011,   50.5175743
   7794,       13611.,   2134.36011,   63.1469688
   7795,       13611.,   2134.36011,   75.7763672
   7796,       13611.,   2134.36011,   88.4057541
   7797,       13611.,   2134.36011,   101.035149
   7798,       13611.,   2134.36011,   113.664543
   7799,       13611.,   2134.36011,   126.293938
   7800,       13611.,   2134.36011,    138.92334
   7801,       13611.,   2134.36011,   151.552734
   7802,       13611.,   2134.36011,   164.182114
   7803,       13611.,   2134.36011,   176.811508
   7804,       13611.,   2134.36011,   189.440903
   7805,       13611.,   2134.36011,   202.070297
   7806,       13611.,   2134.36011,   214.699692
   7807,       13611.,   2134.36011,   227.329086
   7808,       13611.,   2134.36011,   239.958481
   7809,       13611.,   2134.36011,   252.587875
   7810,       13611.,   2134.36011,   265.217285
   7811,       13611.,   2134.36011,    277.84668
   7812,       13611.,   2134.36011,   290.476074
   7813,       13611.,   2134.36011,   303.105469
   7814,       13611.,   2134.36011,   315.734863
   7815,       13611.,   2134.36011,   328.364227
   7816,       13611.,   2134.36011,   340.993622
   7817,       13611.,   2134.36011,   353.623016
   7818,       13611.,   2134.36011,   366.252411
   7819,       13611.,   2134.36011,   378.881805
   7820,       13611.,   2134.36011,     391.5112
   7821,       13611.,   2134.36011,   404.140594
   7822,       13611.,           0.,        939.5
   7823,       13611.,           0.,         952.
   7824,       13611.,           0.,        964.5
   7825,       13611.,           0.,         977.
   7826,       13611.,           0.,        989.5
   7827,       13611.,           0.,        1002.
   7828,       13611.,           0.,       1014.5
   7829,       13611.,           0.,        1027.
   7830,       13611.,           0.,       1039.5
   7831,       13611.,           0.,   12.5270271
   7832,       13611.,           0.,   25.0540543
   7833,       13611.,           0.,   37.5810814
   7834,       13611.,           0.,   50.1081085
   7835,       13611.,           0.,   62.6351357
   7836,       13611.,           0.,   75.1621628
   7837,       13611.,           0.,   87.6891861
   7838,       13611.,           0.,   100.216217
   7839,       13611.,           0.,    112.74324
   7840,       13611.,           0.,   125.270271
   7841,       13611.,           0.,   137.797302
   7842,       13611.,           0.,   150.324326
   7843,       13611.,           0.,   162.851349
   7844,       13611.,           0.,   175.378372
   7845,       13611.,           0.,   187.905411
   7846,       13611.,           0.,   200.432434
   7847,       13611.,           0.,   212.959457
   7848,       13611.,           0.,   225.486481
   7849,       13611.,           0.,   238.013519
   7850,       13611.,           0.,   250.540543
   7851,       13611.,           0.,   263.067566
   7852,       13611.,           0.,   275.594604
   7853,       13611.,           0.,   288.121613
   7854,       13611.,           0.,   300.648651
   7855,       13611.,           0.,    313.17569
   7856,       13611.,           0.,   325.702698
   7857,       13611.,           0.,   338.229736
   7858,       13611.,           0.,   350.756744
   7859,       13611.,           0.,   363.283783
   7860,       13611.,           0.,   375.810822
   7861,       13611.,           0.,    388.33783
   7862,       13611.,           0.,   400.864868
   7863,       13611.,           0.,   413.391907
   7864,       13611.,           0.,   425.918915
   7865,       13611.,           0.,   438.445953
   7866,       13611.,           0.,   450.972961
   7867,       13611.,           0.,        463.5
   7868,       13611.,           0.,   476.027039
   7869,       13611.,           0.,   488.554047
   7870,       13611.,           0.,   501.081085
   7871,       13611.,           0.,   513.608093
   7872,       13611.,           0.,   526.135132
   7873,       13611.,           0.,    538.66217
   7874,       13611.,           0.,   551.189209
   7875,       13611.,           0.,   563.716187
   7876,       13611.,           0.,   576.243225
   7877,       13611.,           0.,   588.770264
   7878,       13611.,           0.,   601.297302
   7879,       13611.,           0.,   613.824341
   7880,       13611.,           0.,   626.351379
   7881,       13611.,           0.,   638.878357
   7882,       13611.,           0.,   651.405396
   7883,       13611.,           0.,   663.932434
   7884,       13611.,           0.,   676.459473
   7885,       13611.,           0.,   688.986511
   7886,       13611.,           0.,   701.513489
   7887,       13611.,           0.,   714.040527
   7888,       13611.,           0.,   726.567566
   7889,       13611.,           0.,   739.094604
   7890,       13611.,           0.,   751.621643
   7891,       13611.,           0.,   764.148621
   7892,       13611.,           0.,   776.675659
   7893,       13611.,           0.,   789.202698
   7894,       13611.,           0.,   801.729736
   7895,       13611.,           0.,   814.256775
   7896,       13611.,           0.,   826.783813
   7897,       13611.,           0.,   839.310791
   7898,       13611.,           0.,    851.83783
   7899,       13611.,           0.,   864.364868
   7900,       13611.,           0.,   876.891907
   7901,       13611.,           0.,   889.418945
   7902,       13611.,           0.,   901.945923
   7903,       13611.,           0.,   914.472961
   7904,        9074.,   2134.36011,   429.310242
   7905,        9074.,   2134.36011,   441.850464
   7906,        9074.,   2134.36011,   454.390686
   7907,        9074.,   2134.36011,   466.930908
   7908,        9074.,   2134.36011,   479.471161
   7909,        9074.,   2134.36011,   492.011383
   7910,        9074.,   2134.36011,   504.551605
   7911,        9074.,   2134.36011,   517.091858
   7912,        9074.,   2134.36011,    529.63208
   7913,        9074.,   2134.36011,   542.172302
   7914,        9074.,   2134.36011,   554.712524
   7915,        9074.,   2134.36011,   567.252747
   7916,        9074.,   2134.36011,    579.79303
   7917,        9074.,   2134.36011,   592.333252
   7918,        9074.,   2134.36011,   604.873474
   7919,        9074.,   2134.36011,   617.413696
   7920,        9074.,   2134.36011,   629.953918
   7921,        9074.,   2134.36011,   642.494141
   7922,        9074.,   2134.36011,   655.034363
   7923,        9074.,   2134.36011,   667.574585
   7924,        9074.,   2134.36011,   680.114868
   7925,        9074.,   2134.36011,    692.65509
   7926,        9074.,   2134.36011,   705.195312
   7927,        9074.,   2134.36011,   717.735535
   7928,        9074.,   2134.36011,   730.275757
   7929,        9074.,   2134.36011,   742.815979
   7930,        9074.,   2134.36011,   755.356201
   7931,        9074.,   2134.36011,   767.896484
   7932,        9074.,   2134.36011,   780.436707
   7933,        9074.,   2134.36011,   792.976929
   7934,        9074.,   2134.36011,   805.517151
   7935,        9074.,   2134.36011,   818.057373
   7936,        9074.,   2134.36011,   830.597595
   7937,        9074.,   2134.36011,   843.137817
   7938,        9074.,   2134.36011,   855.678101
   7939,        9074.,   2134.36011,   868.218323
   7940,        9074.,   2134.36011,   880.758545
   7941,        9074.,   2134.36011,   893.298767
   7942,        9074.,   2134.36011,   905.838989
   7943,        9074.,   2134.36011,   918.379211
   7944,        9074.,   2134.36011,   930.919434
   7945,        9074.,   2134.36011,   943.459717
   7946,        9074.,   2134.36011,   955.999939
   7947,        9074.,   2134.36011,   968.540161
   7948,        9074.,   2134.36011,   981.080383
   7949,        9074.,   2134.36011,   993.620605
   7950,        9074.,   2134.36011,   1006.16083
   7951,        9074.,   2134.36011,   1018.70105
   7952,        9074.,   2134.36011,   1031.24133
   7953,        9074.,   2134.36011,   1043.78149
   7954,        9074.,   2134.36011,   1056.32178
   7955,        9074.,   2134.36011,   1068.86206
   7956,        9074.,   2134.36011,   1081.40222
   7957,        9074.,   2134.36011,    1093.9425
   7958,        9074.,   2134.36011,   1106.48267
   7959,        9074.,   2134.36011,   1119.02295
   7960,        9074.,   2134.36011,   1131.56311
   7961,        9074.,   2134.36011,   1144.10339
   7962,        9074.,   2134.36011,   1156.64355
   7963,        9074.,   2134.36011,   1169.18384
   7964,        9074.,   2134.36011,   1181.72412
   7965,        9074.,   2134.36011,   1194.26428
   7966,        9074.,   2134.36011,   1206.80457
   7967,        9074.,   2134.36011,   1219.34473
   7968,        9074.,   2134.36011,   1231.88501
   7969,        9074.,   2134.36011,   1244.42517
   7970,        9074.,   2134.36011,   1256.96545
   7971,        9074.,   2134.36011,   1269.50574
   7972,        9074.,   2134.36011,    1282.0459
   7973,        9074.,   2134.36011,   1294.58618
   7974,        9074.,   2134.36011,   1307.12634
   7975,        9074.,   2134.36011,   1319.66663
   7976,        9074.,   2134.36011,   1332.20679
   7977,        9074.,   2134.36011,   1344.74707
   7978,        9074.,   2134.36011,   1357.28735
   7979,        9074.,   2134.36011,   1369.82751
   7980,        9074.,   2134.36011,    1382.3678
   7981,        9074.,   2134.36011,   1394.90796
   7982,        9074.,   2134.36011,   1407.44824
   7983,        9074.,   2134.36011,    1419.9884
   7984,        9074.,   2134.36011,   1432.52869
   7985,        9074.,   2134.36011,   1445.06897
   7986,        9074.,   2134.36011,   1457.60913
   7987,        9074.,   2134.36011,   1470.14941
   7988,        9074.,   2134.36011,   1482.68958
   7989,        9074.,   2134.36011,   1495.22986
   7990,        9074.,   2134.36011,   1507.77002
   7991,        9074.,   2134.36011,    1520.3103
   7992,        9074.,   2134.36011,   1532.85059
   7993,        9074.,   2134.36011,   1545.39075
   7994,        9074.,   2134.36011,   1557.93103
   7995,        9074.,   2134.36011,   1570.47119
   7996,        9074.,   2134.36011,   1583.01147
   7997,        9074.,   2134.36011,   1595.55164
   7998,        9074.,   2134.36011,   1608.09192
   7999,        9074.,   2134.36011,    1620.6322
   8000,        9074.,   2134.36011,   1633.17236
   8001,        9074.,   2134.36011,   1645.71265
   8002,        9074.,   2134.36011,   1658.25281
   8003,        9074.,   2134.36011,   1670.79309
   8004,        9074.,   2134.36011,   1683.33325
   8005,        9074.,   2134.36011,   1695.87354
   8006,        9074.,   2134.36011,   1708.41382
   8007,        9074.,   2134.36011,   1720.95398
   8008,        9074.,   2134.36011,   1733.49426
   8009,        9074.,   2134.36011,   1746.03442
   8010,        9074.,   2134.36011,   1758.57471
   8011,        9074.,   2134.36011,   1771.11487
   8012,        9074.,   2134.36011,   1783.65515
   8013,        9074.,   2134.36011,   1796.19543
   8014,        9074.,   2134.36011,    1808.7356
   8015,        9074.,   2134.36011,   1821.27588
   8016,        9074.,   2134.36011,   1833.81604
   8017,        9074.,   2134.36011,   1846.35632
   8018,        9074.,   2134.36011,   1858.89648
   8019,        9074.,   2134.36011,   1871.43677
   8020,        9074.,   2134.36011,   1883.97705
   8021,        9074.,   2134.36011,   1896.51721
   8022,        9074.,   2134.36011,    1909.0575
   8023,        9074.,   2134.36011,   1921.59766
   8024,        9074.,   2134.36011,   1934.13794
   8025,        9074.,   2134.36011,    1946.6781
   8026,        9074.,   2134.36011,   1959.21838
   8027,        9074.,   2134.36011,   1971.75867
   8028,        9074.,   2134.36011,   1984.29883
   8029,        9074.,   2134.36011,   1996.83911
   8030,        9074.,   2134.36011,   2009.37927
   8031,        9074.,   2134.36011,   2021.91956
   8032,        9074.,   2134.36011,   2034.45972
   8033,        9074.,   2134.36011,   12.6293936
   8034,        9074.,   2134.36011,   25.2587872
   8035,        9074.,   2134.36011,   37.8881836
   8036,        9074.,   2134.36011,   50.5175743
   8037,        9074.,   2134.36011,   63.1469688
   8038,        9074.,   2134.36011,   75.7763672
   8039,        9074.,   2134.36011,   88.4057541
   8040,        9074.,   2134.36011,   101.035149
   8041,        9074.,   2134.36011,   113.664543
   8042,        9074.,   2134.36011,   126.293938
   8043,        9074.,   2134.36011,    138.92334
   8044,        9074.,   2134.36011,   151.552734
   8045,        9074.,   2134.36011,   164.182114
   8046,        9074.,   2134.36011,   176.811508
   8047,        9074.,   2134.36011,   189.440903
   8048,        9074.,   2134.36011,   202.070297
   8049,        9074.,   2134.36011,   214.699692
   8050,        9074.,   2134.36011,   227.329086
   8051,        9074.,   2134.36011,   239.958481
   8052,        9074.,   2134.36011,   252.587875
   8053,        9074.,   2134.36011,   265.217285
   8054,        9074.,   2134.36011,    277.84668
   8055,        9074.,   2134.36011,   290.476074
   8056,        9074.,   2134.36011,   303.105469
   8057,        9074.,   2134.36011,   315.734863
   8058,        9074.,   2134.36011,   328.364227
   8059,        9074.,   2134.36011,   340.993622
   8060,        9074.,   2134.36011,   353.623016
   8061,        9074.,   2134.36011,   366.252411
   8062,        9074.,   2134.36011,   378.881805
   8063,        9074.,   2134.36011,     391.5112
   8064,        9074.,   2134.36011,   404.140594
   8065,        9074.,           0.,        939.5
   8066,        9074.,           0.,         952.
   8067,        9074.,           0.,        964.5
   8068,        9074.,           0.,         977.
   8069,        9074.,           0.,        989.5
   8070,        9074.,           0.,        1002.
   8071,        9074.,           0.,       1014.5
   8072,        9074.,           0.,        1027.
   8073,        9074.,           0.,       1039.5
   8074,        9074.,           0.,   12.5270271
   8075,        9074.,           0.,   25.0540543
   8076,        9074.,           0.,   37.5810814
   8077,        9074.,           0.,   50.1081085
   8078,        9074.,           0.,   62.6351357
   8079,        9074.,           0.,   75.1621628
   8080,        9074.,           0.,   87.6891861
   8081,        9074.,           0.,   100.216217
   8082,        9074.,           0.,    112.74324
   8083,        9074.,           0.,   125.270271
   8084,        9074.,           0.,   137.797302
   8085,        9074.,           0.,   150.324326
   8086,        9074.,           0.,   162.851349
   8087,        9074.,           0.,   175.378372
   8088,        9074.,           0.,   187.905411
   8089,        9074.,           0.,   200.432434
   8090,        9074.,           0.,   212.959457
   8091,        9074.,           0.,   225.486481
   8092,        9074.,           0.,   238.013519
   8093,        9074.,           0.,   250.540543
   8094,        9074.,           0.,   263.067566
   8095,        9074.,           0.,   275.594604
   8096,        9074.,           0.,   288.121613
   8097,        9074.,           0.,   300.648651
   8098,        9074.,           0.,    313.17569
   8099,        9074.,           0.,   325.702698
   8100,        9074.,           0.,   338.229736
   8101,        9074.,           0.,   350.756744
   8102,        9074.,           0.,   363.283783
   8103,        9074.,           0.,   375.810822
   8104,        9074.,           0.,    388.33783
   8105,        9074.,           0.,   400.864868
   8106,        9074.,           0.,   413.391907
   8107,        9074.,           0.,   425.918915
   8108,        9074.,           0.,   438.445953
   8109,        9074.,           0.,   450.972961
   8110,        9074.,           0.,        463.5
   8111,        9074.,           0.,   476.027039
   8112,        9074.,           0.,   488.554047
   8113,        9074.,           0.,   501.081085
   8114,        9074.,           0.,   513.608093
   8115,        9074.,           0.,   526.135132
   8116,        9074.,           0.,    538.66217
   8117,        9074.,           0.,   551.189209
   8118,        9074.,           0.,   563.716187
   8119,        9074.,           0.,   576.243225
   8120,        9074.,           0.,   588.770264
   8121,        9074.,           0.,   601.297302
   8122,        9074.,           0.,   613.824341
   8123,        9074.,           0.,   626.351379
   8124,        9074.,           0.,   638.878357
   8125,        9074.,           0.,   651.405396
   8126,        9074.,           0.,   663.932434
   8127,        9074.,           0.,   676.459473
   8128,        9074.,           0.,   688.986511
   8129,        9074.,           0.,   701.513489
   8130,        9074.,           0.,   714.040527
   8131,        9074.,           0.,   726.567566
   8132,        9074.,           0.,   739.094604
   8133,        9074.,           0.,   751.621643
   8134,        9074.,           0.,   764.148621
   8135,        9074.,           0.,   776.675659
   8136,        9074.,           0.,   789.202698
   8137,        9074.,           0.,   801.729736
   8138,        9074.,           0.,   814.256775
   8139,        9074.,           0.,   826.783813
   8140,        9074.,           0.,   839.310791
   8141,        9074.,           0.,    851.83783
   8142,        9074.,           0.,   864.364868
   8143,        9074.,           0.,   876.891907
   8144,        9074.,           0.,   889.418945
   8145,        9074.,           0.,   901.945923
   8146,        9074.,           0.,   914.472961
   8147,        4537.,   2134.36011,   429.310242
   8148,        4537.,   2134.36011,   441.850464
   8149,        4537.,   2134.36011,   454.390686
   8150,        4537.,   2134.36011,   466.930908
   8151,        4537.,   2134.36011,   479.471161
   8152,        4537.,   2134.36011,   492.011383
   8153,        4537.,   2134.36011,   504.551605
   8154,        4537.,   2134.36011,   517.091858
   8155,        4537.,   2134.36011,    529.63208
   8156,        4537.,   2134.36011,   542.172302
   8157,        4537.,   2134.36011,   554.712524
   8158,        4537.,   2134.36011,   567.252747
   8159,        4537.,   2134.36011,    579.79303
   8160,        4537.,   2134.36011,   592.333252
   8161,        4537.,   2134.36011,   604.873474
   8162,        4537.,   2134.36011,   617.413696
   8163,        4537.,   2134.36011,   629.953918
   8164,        4537.,   2134.36011,   642.494141
   8165,        4537.,   2134.36011,   655.034363
   8166,        4537.,   2134.36011,   667.574585
   8167,        4537.,   2134.36011,   680.114868
   8168,        4537.,   2134.36011,    692.65509
   8169,        4537.,   2134.36011,   705.195312
   8170,        4537.,   2134.36011,   717.735535
   8171,        4537.,   2134.36011,   730.275757
   8172,        4537.,   2134.36011,   742.815979
   8173,        4537.,   2134.36011,   755.356201
   8174,        4537.,   2134.36011,   767.896484
   8175,        4537.,   2134.36011,   780.436707
   8176,        4537.,   2134.36011,   792.976929
   8177,        4537.,   2134.36011,   805.517151
   8178,        4537.,   2134.36011,   818.057373
   8179,        4537.,   2134.36011,   830.597595
   8180,        4537.,   2134.36011,   843.137817
   8181,        4537.,   2134.36011,   855.678101
   8182,        4537.,   2134.36011,   868.218323
   8183,        4537.,   2134.36011,   880.758545
   8184,        4537.,   2134.36011,   893.298767
   8185,        4537.,   2134.36011,   905.838989
   8186,        4537.,   2134.36011,   918.379211
   8187,        4537.,   2134.36011,   930.919434
   8188,        4537.,   2134.36011,   943.459717
   8189,        4537.,   2134.36011,   955.999939
   8190,        4537.,   2134.36011,   968.540161
   8191,        4537.,   2134.36011,   981.080383
   8192,        4537.,   2134.36011,   993.620605
   8193,        4537.,   2134.36011,   1006.16083
   8194,        4537.,   2134.36011,   1018.70105
   8195,        4537.,   2134.36011,   1031.24133
   8196,        4537.,   2134.36011,   1043.78149
   8197,        4537.,   2134.36011,   1056.32178
   8198,        4537.,   2134.36011,   1068.86206
   8199,        4537.,   2134.36011,   1081.40222
   8200,        4537.,   2134.36011,    1093.9425
   8201,        4537.,   2134.36011,   1106.48267
   8202,        4537.,   2134.36011,   1119.02295
   8203,        4537.,   2134.36011,   1131.56311
   8204,        4537.,   2134.36011,   1144.10339
   8205,        4537.,   2134.36011,   1156.64355
   8206,        4537.,   2134.36011,   1169.18384
   8207,        4537.,   2134.36011,   1181.72412
   8208,        4537.,   2134.36011,   1194.26428
   8209,        4537.,   2134.36011,   1206.80457
   8210,        4537.,   2134.36011,   1219.34473
   8211,        4537.,   2134.36011,   1231.88501
   8212,        4537.,   2134.36011,   1244.42517
   8213,        4537.,   2134.36011,   1256.96545
   8214,        4537.,   2134.36011,   1269.50574
   8215,        4537.,   2134.36011,    1282.0459
   8216,        4537.,   2134.36011,   1294.58618
   8217,        4537.,   2134.36011,   1307.12634
   8218,        4537.,   2134.36011,   1319.66663
   8219,        4537.,   2134.36011,   1332.20679
   8220,        4537.,   2134.36011,   1344.74707
   8221,        4537.,   2134.36011,   1357.28735
   8222,        4537.,   2134.36011,   1369.82751
   8223,        4537.,   2134.36011,    1382.3678
   8224,        4537.,   2134.36011,   1394.90796
   8225,        4537.,   2134.36011,   1407.44824
   8226,        4537.,   2134.36011,    1419.9884
   8227,        4537.,   2134.36011,   1432.52869
   8228,        4537.,   2134.36011,   1445.06897
   8229,        4537.,   2134.36011,   1457.60913
   8230,        4537.,   2134.36011,   1470.14941
   8231,        4537.,   2134.36011,   1482.68958
   8232,        4537.,   2134.36011,   1495.22986
   8233,        4537.,   2134.36011,   1507.77002
   8234,        4537.,   2134.36011,    1520.3103
   8235,        4537.,   2134.36011,   1532.85059
   8236,        4537.,   2134.36011,   1545.39075
   8237,        4537.,   2134.36011,   1557.93103
   8238,        4537.,   2134.36011,   1570.47119
   8239,        4537.,   2134.36011,   1583.01147
   8240,        4537.,   2134.36011,   1595.55164
   8241,        4537.,   2134.36011,   1608.09192
   8242,        4537.,   2134.36011,    1620.6322
   8243,        4537.,   2134.36011,   1633.17236
   8244,        4537.,   2134.36011,   1645.71265
   8245,        4537.,   2134.36011,   1658.25281
   8246,        4537.,   2134.36011,   1670.79309
   8247,        4537.,   2134.36011,   1683.33325
   8248,        4537.,   2134.36011,   1695.87354
   8249,        4537.,   2134.36011,   1708.41382
   8250,        4537.,   2134.36011,   1720.95398
   8251,        4537.,   2134.36011,   1733.49426
   8252,        4537.,   2134.36011,   1746.03442
   8253,        4537.,   2134.36011,   1758.57471
   8254,        4537.,   2134.36011,   1771.11487
   8255,        4537.,   2134.36011,   1783.65515
   8256,        4537.,   2134.36011,   1796.19543
   8257,        4537.,   2134.36011,    1808.7356
   8258,        4537.,   2134.36011,   1821.27588
   8259,        4537.,   2134.36011,   1833.81604
   8260,        4537.,   2134.36011,   1846.35632
   8261,        4537.,   2134.36011,   1858.89648
   8262,        4537.,   2134.36011,   1871.43677
   8263,        4537.,   2134.36011,   1883.97705
   8264,        4537.,   2134.36011,   1896.51721
   8265,        4537.,   2134.36011,    1909.0575
   8266,        4537.,   2134.36011,   1921.59766
   8267,        4537.,   2134.36011,   1934.13794
   8268,        4537.,   2134.36011,    1946.6781
   8269,        4537.,   2134.36011,   1959.21838
   8270,        4537.,   2134.36011,   1971.75867
   8271,        4537.,   2134.36011,   1984.29883
   8272,        4537.,   2134.36011,   1996.83911
   8273,        4537.,   2134.36011,   2009.37927
   8274,        4537.,   2134.36011,   2021.91956
   8275,        4537.,   2134.36011,   2034.45972
   8276,        4537.,   2134.36011,   12.6293936
   8277,        4537.,   2134.36011,   25.2587872
   8278,        4537.,   2134.36011,   37.8881836
   8279,        4537.,   2134.36011,   50.5175743
   8280,        4537.,   2134.36011,   63.1469688
   8281,        4537.,   2134.36011,   75.7763672
   8282,        4537.,   2134.36011,   88.4057541
   8283,        4537.,   2134.36011,   101.035149
   8284,        4537.,   2134.36011,   113.664543
   8285,        4537.,   2134.36011,   126.293938
   8286,        4537.,   2134.36011,    138.92334
   8287,        4537.,   2134.36011,   151.552734
   8288,        4537.,   2134.36011,   164.182114
   8289,        4537.,   2134.36011,   176.811508
   8290,        4537.,   2134.36011,   189.440903
   8291,        4537.,   2134.36011,   202.070297
   8292,        4537.,   2134.36011,   214.699692
   8293,        4537.,   2134.36011,   227.329086
   8294,        4537.,   2134.36011,   239.958481
   8295,        4537.,   2134.36011,   252.587875
   8296,        4537.,   2134.36011,   265.217285
   8297,        4537.,   2134.36011,    277.84668
   8298,        4537.,   2134.36011,   290.476074
   8299,        4537.,   2134.36011,   303.105469
   8300,        4537.,   2134.36011,   315.734863
   8301,        4537.,   2134.36011,   328.364227
   8302,        4537.,   2134.36011,   340.993622
   8303,        4537.,   2134.36011,   353.623016
   8304,        4537.,   2134.36011,   366.252411
   8305,        4537.,   2134.36011,   378.881805
   8306,        4537.,   2134.36011,     391.5112
   8307,        4537.,   2134.36011,   404.140594
   8308,        4537.,           0.,        939.5
   8309,        4537.,           0.,         952.
   8310,        4537.,           0.,        964.5
   8311,        4537.,           0.,         977.
   8312,        4537.,           0.,        989.5
   8313,        4537.,           0.,        1002.
   8314,        4537.,           0.,       1014.5
   8315,        4537.,           0.,        1027.
   8316,        4537.,           0.,       1039.5
   8317,        4537.,           0.,   12.5270271
   8318,        4537.,           0.,   25.0540543
   8319,        4537.,           0.,   37.5810814
   8320,        4537.,           0.,   50.1081085
   8321,        4537.,           0.,   62.6351357
   8322,        4537.,           0.,   75.1621628
   8323,        4537.,           0.,   87.6891861
   8324,        4537.,           0.,   100.216217
   8325,        4537.,           0.,    112.74324
   8326,        4537.,           0.,   125.270271
   8327,        4537.,           0.,   137.797302
   8328,        4537.,           0.,   150.324326
   8329,        4537.,           0.,   162.851349
   8330,        4537.,           0.,   175.378372
   8331,        4537.,           0.,   187.905411
   8332,        4537.,           0.,   200.432434
   8333,        4537.,           0.,   212.959457
   8334,        4537.,           0.,   225.486481
   8335,        4537.,           0.,   238.013519
   8336,        4537.,           0.,   250.540543
   8337,        4537.,           0.,   263.067566
   8338,        4537.,           0.,   275.594604
   8339,        4537.,           0.,   288.121613
   8340,        4537.,           0.,   300.648651
   8341,        4537.,           0.,    313.17569
   8342,        4537.,           0.,   325.702698
   8343,        4537.,           0.,   338.229736
   8344,        4537.,           0.,   350.756744
   8345,        4537.,           0.,   363.283783
   8346,        4537.,           0.,   375.810822
   8347,        4537.,           0.,    388.33783
   8348,        4537.,           0.,   400.864868
   8349,        4537.,           0.,   413.391907
   8350,        4537.,           0.,   425.918915
   8351,        4537.,           0.,   438.445953
   8352,        4537.,           0.,   450.972961
   8353,        4537.,           0.,        463.5
   8354,        4537.,           0.,   476.027039
   8355,        4537.,           0.,   488.554047
   8356,        4537.,           0.,   501.081085
   8357,        4537.,           0.,   513.608093
   8358,        4537.,           0.,   526.135132
   8359,        4537.,           0.,    538.66217
   8360,        4537.,           0.,   551.189209
   8361,        4537.,           0.,   563.716187
   8362,        4537.,           0.,   576.243225
   8363,        4537.,           0.,   588.770264
   8364,        4537.,           0.,   601.297302
   8365,        4537.,           0.,   613.824341
   8366,        4537.,           0.,   626.351379
   8367,        4537.,           0.,   638.878357
   8368,        4537.,           0.,   651.405396
   8369,        4537.,           0.,   663.932434
   8370,        4537.,           0.,   676.459473
   8371,        4537.,           0.,   688.986511
   8372,        4537.,           0.,   701.513489
   8373,        4537.,           0.,   714.040527
   8374,        4537.,           0.,   726.567566
   8375,        4537.,           0.,   739.094604
   8376,        4537.,           0.,   751.621643
   8377,        4537.,           0.,   764.148621
   8378,        4537.,           0.,   776.675659
   8379,        4537.,           0.,   789.202698
   8380,        4537.,           0.,   801.729736
   8381,        4537.,           0.,   814.256775
   8382,        4537.,           0.,   826.783813
   8383,        4537.,           0.,   839.310791
   8384,        4537.,           0.,    851.83783
   8385,        4537.,           0.,   864.364868
   8386,        4537.,           0.,   876.891907
   8387,        4537.,           0.,   889.418945
   8388,        4537.,           0.,   901.945923
   8389,        4537.,           0.,   914.472961
   8390,           0.,   2134.36011,   429.310242
   8391,           0.,   2134.36011,   441.850464
   8392,           0.,   2134.36011,   454.390686
   8393,           0.,   2134.36011,   466.930908
   8394,           0.,   2134.36011,   479.471161
   8395,           0.,   2134.36011,   492.011383
   8396,           0.,   2134.36011,   504.551605
   8397,           0.,   2134.36011,   517.091858
   8398,           0.,   2134.36011,    529.63208
   8399,           0.,   2134.36011,   542.172302
   8400,           0.,   2134.36011,   554.712524
   8401,           0.,   2134.36011,   567.252747
   8402,           0.,   2134.36011,    579.79303
   8403,           0.,   2134.36011,   592.333252
   8404,           0.,   2134.36011,   604.873474
   8405,           0.,   2134.36011,   617.413696
   8406,           0.,   2134.36011,   629.953918
   8407,           0.,   2134.36011,   642.494141
   8408,           0.,   2134.36011,   655.034363
   8409,           0.,   2134.36011,   667.574585
   8410,           0.,   2134.36011,   680.114868
   8411,           0.,   2134.36011,    692.65509
   8412,           0.,   2134.36011,   705.195312
   8413,           0.,   2134.36011,   717.735535
   8414,           0.,   2134.36011,   730.275757
   8415,           0.,   2134.36011,   742.815979
   8416,           0.,   2134.36011,   755.356201
   8417,           0.,   2134.36011,   767.896484
   8418,           0.,   2134.36011,   780.436707
   8419,           0.,   2134.36011,   792.976929
   8420,           0.,   2134.36011,   805.517151
   8421,           0.,   2134.36011,   818.057373
   8422,           0.,   2134.36011,   830.597595
   8423,           0.,   2134.36011,   843.137817
   8424,           0.,   2134.36011,   855.678101
   8425,           0.,   2134.36011,   868.218323
   8426,           0.,   2134.36011,   880.758545
   8427,           0.,   2134.36011,   893.298767
   8428,           0.,   2134.36011,   905.838989
   8429,           0.,   2134.36011,   918.379211
   8430,           0.,   2134.36011,   930.919434
   8431,           0.,   2134.36011,   943.459717
   8432,           0.,   2134.36011,   955.999939
   8433,           0.,   2134.36011,   968.540161
   8434,           0.,   2134.36011,   981.080383
   8435,           0.,   2134.36011,   993.620605
   8436,           0.,   2134.36011,   1006.16083
   8437,           0.,   2134.36011,   1018.70105
   8438,           0.,   2134.36011,   1031.24133
   8439,           0.,   2134.36011,   1043.78149
   8440,           0.,   2134.36011,   1056.32178
   8441,           0.,   2134.36011,   1068.86206
   8442,           0.,   2134.36011,   1081.40222
   8443,           0.,   2134.36011,    1093.9425
   8444,           0.,   2134.36011,   1106.48267
   8445,           0.,   2134.36011,   1119.02295
   8446,           0.,   2134.36011,   1131.56311
   8447,           0.,   2134.36011,   1144.10339
   8448,           0.,   2134.36011,   1156.64355
   8449,           0.,   2134.36011,   1169.18384
   8450,           0.,   2134.36011,   1181.72412
   8451,           0.,   2134.36011,   1194.26428
   8452,           0.,   2134.36011,   1206.80457
   8453,           0.,   2134.36011,   1219.34473
   8454,           0.,   2134.36011,   1231.88501
   8455,           0.,   2134.36011,   1244.42517
   8456,           0.,   2134.36011,   1256.96545
   8457,           0.,   2134.36011,   1269.50574
   8458,           0.,   2134.36011,    1282.0459
   8459,           0.,   2134.36011,   1294.58618
   8460,           0.,   2134.36011,   1307.12634
   8461,           0.,   2134.36011,   1319.66663
   8462,           0.,   2134.36011,   1332.20679
   8463,           0.,   2134.36011,   1344.74707
   8464,           0.,   2134.36011,   1357.28735
   8465,           0.,   2134.36011,   1369.82751
   8466,           0.,   2134.36011,    1382.3678
   8467,           0.,   2134.36011,   1394.90796
   8468,           0.,   2134.36011,   1407.44824
   8469,           0.,   2134.36011,    1419.9884
   8470,           0.,   2134.36011,   1432.52869
   8471,           0.,   2134.36011,   1445.06897
   8472,           0.,   2134.36011,   1457.60913
   8473,           0.,   2134.36011,   1470.14941
   8474,           0.,   2134.36011,   1482.68958
   8475,           0.,   2134.36011,   1495.22986
   8476,           0.,   2134.36011,   1507.77002
   8477,           0.,   2134.36011,    1520.3103
   8478,           0.,   2134.36011,   1532.85059
   8479,           0.,   2134.36011,   1545.39075
   8480,           0.,   2134.36011,   1557.93103
   8481,           0.,   2134.36011,   1570.47119
   8482,           0.,   2134.36011,   1583.01147
   8483,           0.,   2134.36011,   1595.55164
   8484,           0.,   2134.36011,   1608.09192
   8485,           0.,   2134.36011,    1620.6322
   8486,           0.,   2134.36011,   1633.17236
   8487,           0.,   2134.36011,   1645.71265
   8488,           0.,   2134.36011,   1658.25281
   8489,           0.,   2134.36011,   1670.79309
   8490,           0.,   2134.36011,   1683.33325
   8491,           0.,   2134.36011,   1695.87354
   8492,           0.,   2134.36011,   1708.41382
   8493,           0.,   2134.36011,   1720.95398
   8494,           0.,   2134.36011,   1733.49426
   8495,           0.,   2134.36011,   1746.03442
   8496,           0.,   2134.36011,   1758.57471
   8497,           0.,   2134.36011,   1771.11487
   8498,           0.,   2134.36011,   1783.65515
   8499,           0.,   2134.36011,   1796.19543
   8500,           0.,   2134.36011,    1808.7356
   8501,           0.,   2134.36011,   1821.27588
   8502,           0.,   2134.36011,   1833.81604
   8503,           0.,   2134.36011,   1846.35632
   8504,           0.,   2134.36011,   1858.89648
   8505,           0.,   2134.36011,   1871.43677
   8506,           0.,   2134.36011,   1883.97705
   8507,           0.,   2134.36011,   1896.51721
   8508,           0.,   2134.36011,    1909.0575
   8509,           0.,   2134.36011,   1921.59766
   8510,           0.,   2134.36011,   1934.13794
   8511,           0.,   2134.36011,    1946.6781
   8512,           0.,   2134.36011,   1959.21838
   8513,           0.,   2134.36011,   1971.75867
   8514,           0.,   2134.36011,   1984.29883
   8515,           0.,   2134.36011,   1996.83911
   8516,           0.,   2134.36011,   2009.37927
   8517,           0.,   2134.36011,   2021.91956
   8518,           0.,   2134.36011,   2034.45972
   8519,           0.,   2134.36011,   12.6293936
   8520,           0.,   2134.36011,   25.2587872
   8521,           0.,   2134.36011,   37.8881836
   8522,           0.,   2134.36011,   50.5175743
   8523,           0.,   2134.36011,   63.1469688
   8524,           0.,   2134.36011,   75.7763672
   8525,           0.,   2134.36011,   88.4057541
   8526,           0.,   2134.36011,   101.035149
   8527,           0.,   2134.36011,   113.664543
   8528,           0.,   2134.36011,   126.293938
   8529,           0.,   2134.36011,    138.92334
   8530,           0.,   2134.36011,   151.552734
   8531,           0.,   2134.36011,   164.182114
   8532,           0.,   2134.36011,   176.811508
   8533,           0.,   2134.36011,   189.440903
   8534,           0.,   2134.36011,   202.070297
   8535,           0.,   2134.36011,   214.699692
   8536,           0.,   2134.36011,   227.329086
   8537,           0.,   2134.36011,   239.958481
   8538,           0.,   2134.36011,   252.587875
   8539,           0.,   2134.36011,   265.217285
   8540,           0.,   2134.36011,    277.84668
   8541,           0.,   2134.36011,   290.476074
   8542,           0.,   2134.36011,   303.105469
   8543,           0.,   2134.36011,   315.734863
   8544,           0.,   2134.36011,   328.364227
   8545,           0.,   2134.36011,   340.993622
   8546,           0.,   2134.36011,   353.623016
   8547,           0.,   2134.36011,   366.252411
   8548,           0.,   2134.36011,   378.881805
   8549,           0.,   2134.36011,     391.5112
   8550,           0.,   2134.36011,   404.140594
   8551,           0.,           0.,        939.5
   8552,           0.,           0.,         952.
   8553,           0.,           0.,        964.5
   8554,           0.,           0.,         977.
   8555,           0.,           0.,        989.5
   8556,           0.,           0.,        1002.
   8557,           0.,           0.,       1014.5
   8558,           0.,           0.,        1027.
   8559,           0.,           0.,       1039.5
   8560,           0.,           0.,   12.5270271
   8561,           0.,           0.,   25.0540543
   8562,           0.,           0.,   37.5810814
   8563,           0.,           0.,   50.1081085
   8564,           0.,           0.,   62.6351357
   8565,           0.,           0.,   75.1621628
   8566,           0.,           0.,   87.6891861
   8567,           0.,           0.,   100.216217
   8568,           0.,           0.,    112.74324
   8569,           0.,           0.,   125.270271
   8570,           0.,           0.,   137.797302
   8571,           0.,           0.,   150.324326
   8572,           0.,           0.,   162.851349
   8573,           0.,           0.,   175.378372
   8574,           0.,           0.,   187.905411
   8575,           0.,           0.,   200.432434
   8576,           0.,           0.,   212.959457
   8577,           0.,           0.,   225.486481
   8578,           0.,           0.,   238.013519
   8579,           0.,           0.,   250.540543
   8580,           0.,           0.,   263.067566
   8581,           0.,           0.,   275.594604
   8582,           0.,           0.,   288.121613
   8583,           0.,           0.,   300.648651
   8584,           0.,           0.,    313.17569
   8585,           0.,           0.,   325.702698
   8586,           0.,           0.,   338.229736
   8587,           0.,           0.,   350.756744
   8588,           0.,           0.,   363.283783
   8589,           0.,           0.,   375.810822
   8590,           0.,           0.,    388.33783
   8591,           0.,           0.,   400.864868
   8592,           0.,           0.,   413.391907
   8593,           0.,           0.,   425.918915
   8594,           0.,           0.,   438.445953
   8595,           0.,           0.,   450.972961
   8596,           0.,           0.,        463.5
   8597,           0.,           0.,   476.027039
   8598,           0.,           0.,   488.554047
   8599,           0.,           0.,   501.081085
   8600,           0.,           0.,   513.608093
   8601,           0.,           0.,   526.135132
   8602,           0.,           0.,    538.66217
   8603,           0.,           0.,   551.189209
   8604,           0.,           0.,   563.716187
   8605,           0.,           0.,   576.243225
   8606,           0.,           0.,   588.770264
   8607,           0.,           0.,   601.297302
   8608,           0.,           0.,   613.824341
   8609,           0.,           0.,   626.351379
   8610,           0.,           0.,   638.878357
   8611,           0.,           0.,   651.405396
   8612,           0.,           0.,   663.932434
   8613,           0.,           0.,   676.459473
   8614,           0.,           0.,   688.986511
   8615,           0.,           0.,   701.513489
   8616,           0.,           0.,   714.040527
   8617,           0.,           0.,   726.567566
   8618,           0.,           0.,   739.094604
   8619,           0.,           0.,   751.621643
   8620,           0.,           0.,   764.148621
   8621,           0.,           0.,   776.675659
   8622,           0.,           0.,   789.202698
   8623,           0.,           0.,   801.729736
   8624,           0.,           0.,   814.256775
   8625,           0.,           0.,   826.783813
   8626,           0.,           0.,   839.310791
   8627,           0.,           0.,    851.83783
   8628,           0.,           0.,   864.364868
   8629,           0.,           0.,   876.891907
   8630,           0.,           0.,   889.418945
   8631,           0.,           0.,   901.945923
   8632,           0.,           0.,   914.472961
   8633,       18148.,   12.1270456,   924.100952
   8634,       18148.,   24.2540913,   921.201904
   8635,       18148.,   36.3811378,   918.302917
   8636,       18148.,   48.5081825,    915.40387
   8637,       18148.,   60.6352272,   912.504822
   8638,       18148.,   72.7622757,   909.605774
   8639,       18148.,   84.8893204,   906.706787
   8640,       18148.,   97.0163651,   903.807739
   8641,       18148.,    109.14341,   900.908691
   8642,       18148.,   121.270454,   898.009644
   8643,       18148.,   133.397507,   895.110596
   8644,       18148.,   145.524551,   892.211609
   8645,       18148.,   157.651596,   889.312561
   8646,       18148.,   169.778641,   886.413513
   8647,       18148.,   181.905685,   883.514465
   8648,       18148.,    194.03273,   880.615479
   8649,       18148.,   206.159775,   877.716431
   8650,       18148.,   218.286819,   874.817383
   8651,       18148.,   230.413864,   871.918335
   8652,       18148.,   242.540909,   869.019348
   8653,       18148.,   254.667953,     866.1203
   8654,       18148.,   266.795013,   863.221252
   8655,       18148.,   278.922058,   860.322205
   8656,       18148.,   291.049103,   857.423157
   8657,       18148.,   303.176147,    854.52417
   8658,       18148.,   315.303192,   851.625122
   8659,       18148.,   327.430237,   848.726074
   8660,       18148.,   339.557281,   845.827026
   8661,       18148.,   351.684326,    842.92804
   8662,       18148.,   363.811371,   840.028992
   8663,       18148.,   375.938416,   837.129944
   8664,       18148.,    388.06546,   834.230896
   8665,       18148.,   400.192505,   831.331848
   8666,       18148.,    412.31955,   828.432861
   8667,       18148.,   424.446594,   825.533813
   8668,       18148.,   436.573639,   822.634766
   8669,       18148.,   448.700684,   819.735718
   8670,       18148.,   460.827728,   816.836731
   8671,       18148.,   472.954773,   813.937683
   8672,       18148.,   485.081818,   811.038635
   8673,       18148.,   497.208862,   808.139587
   8674,       18148.,   509.335907,    805.24054
   8675,       18148.,   521.462952,   802.341553
   8676,       18148.,   533.590027,   799.442505
   8677,       18148.,   545.717041,   796.543457
   8678,       18148.,   557.844116,   793.644409
   8679,       18148.,    569.97113,   790.745422
   8680,       18148.,   582.098206,   787.846375
   8681,       18148.,    594.22522,   784.947327
   8682,       18148.,   606.352295,   782.048279
   8683,       18148.,   618.479309,   779.149231
   8684,       18148.,   630.606384,   776.250244
   8685,       18148.,   642.733398,   773.351196
   8686,       18148.,   654.860474,   770.452148
   8687,       18148.,   666.987488,   767.553101
   8688,       18148.,   679.114563,   764.654114
   8689,       18148.,   691.241577,   761.755066
   8690,       18148.,   703.368652,   758.856018
   8691,       18148.,   715.495667,    755.95697
   8692,       18148.,   727.622742,   753.057983
   8693,       18148.,   739.749756,   750.158936
   8694,       18148.,   751.876831,   747.259888
   8695,       18148.,   764.003845,    744.36084
   8696,       18148.,    776.13092,   741.461792
   8697,       18148.,   788.257935,   738.562805
   8698,       18148.,    800.38501,   735.663757
   8699,       18148.,   812.512024,   732.764709
   8700,       18148.,   824.639099,   729.865662
   8701,       18148.,   836.766113,   726.966675
   8702,       18148.,   848.893188,   724.067627
   8703,       18148.,   861.020203,   721.168579
   8704,       18148.,   873.147278,   718.269531
   8705,       18148.,   885.274292,   715.370483
   8706,       18148.,   897.401367,   712.471497
   8707,       18148.,   909.528381,   709.572449
   8708,       18148.,   921.655457,   706.673401
   8709,       18148.,   933.782471,   703.774353
   8710,       18148.,   945.909546,   700.875366
   8711,       18148.,   958.036621,   697.976318
   8712,       18148.,   970.163635,   695.077271
   8713,       18148.,    982.29071,   692.178223
   8714,       18148.,   994.417725,   689.279175
   8715,       18148.,    1006.5448,   686.380188
   8716,       18148.,   1018.67181,    683.48114
   8717,       18148.,   1030.79883,   680.582092
   8718,       18148.,    1042.9259,   677.683044
   8719,       18148.,   1055.05298,   674.784058
   8720,       18148.,   1067.18005,    671.88501
   8721,       18148.,   1079.30701,   668.985962
   8722,       18148.,   1091.43408,   666.086914
   8723,       18148.,   1103.56116,   663.187927
   8724,       18148.,   1115.68823,   660.288879
   8725,       18148.,   1127.81519,   657.389832
   8726,       18148.,   1139.94226,   654.490784
   8727,       18148.,   1152.06934,   651.591736
   8728,       18148.,   1164.19641,   648.692749
   8729,       18148.,   1176.32336,   645.793701
   8730,       18148.,   1188.45044,   642.894653
   8731,       18148.,   1200.57751,   639.995605
   8732,       18148.,   1212.70459,   637.096619
   8733,       18148.,   1224.83154,   634.197571
   8734,       18148.,   1236.95862,   631.298523
   8735,       18148.,   1249.08569,   628.399475
   8736,       18148.,   1261.21277,   625.500427
   8737,       18148.,   1273.33972,    622.60144
   8738,       18148.,    1285.4668,   619.702393
   8739,       18148.,   1297.59387,   616.803345
   8740,       18148.,   1309.72095,   613.904297
   8741,       18148.,    1321.8479,    611.00531
   8742,       18148.,   1333.97498,   608.106262
   8743,       18148.,   1346.10205,   605.207214
   8744,       18148.,   1358.22913,   602.308167
   8745,       18148.,   1370.35608,   599.409119
   8746,       18148.,   1382.48315,   596.510132
   8747,       18148.,   1394.61023,   593.611084
   8748,       18148.,    1406.7373,   590.712036
   8749,       18148.,   1418.86426,   587.812988
   8750,       18148.,   1430.99133,   584.914001
   8751,       18148.,   1443.11841,   582.014954
   8752,       18148.,   1455.24548,   579.115906
   8753,       18148.,   1467.37256,   576.216858
   8754,       18148.,   1479.49951,   573.317871
   8755,       18148.,   1491.62659,   570.418823
   8756,       18148.,   1503.75366,   567.519775
   8757,       18148.,   1515.88074,   564.620728
   8758,       18148.,   1528.00769,    561.72168
   8759,       18148.,   1540.13477,   558.822693
   8760,       18148.,   1552.26184,   555.923645
   8761,       18148.,   1564.38892,   553.024597
   8762,       18148.,   1576.51587,   550.125549
   8763,       18148.,   1588.64294,   547.226562
   8764,       18148.,   1600.77002,   544.327515
   8765,       18148.,   1612.89709,   541.428467
   8766,       18148.,   1625.02405,   538.529419
   8767,       18148.,   1637.15112,   535.630371
   8768,       18148.,    1649.2782,   532.731384
   8769,       18148.,   1661.40527,   529.832336
   8770,       18148.,   1673.53223,   526.933289
   8771,       18148.,    1685.6593,   524.034241
   8772,       18148.,   1697.78638,   521.135254
   8773,       18148.,   1709.91345,   518.236206
   8774,       18148.,   1722.04041,   515.337158
   8775,       18148.,   1734.16748,    512.43811
   8776,       18148.,   1746.29456,   509.539093
   8777,       18148.,   1758.42163,   506.640045
   8778,       18148.,   1770.54858,   503.741028
   8779,       18148.,   1782.67566,    500.84198
   8780,       18148.,   1794.80273,   497.942963
   8781,       18148.,   1806.92981,   495.043915
   8782,       18148.,   1819.05676,   492.144897
   8783,       18148.,   1831.18384,    489.24585
   8784,       18148.,   1843.31091,   486.346832
   8785,       18148.,   1855.43799,   483.447784
   8786,       18148.,   1867.56494,   480.548737
   8787,       18148.,   1879.69202,   477.649719
   8788,       18148.,   1891.81909,   474.750671
   8789,       18148.,   1903.94617,   471.851654
   8790,       18148.,   1916.07324,   468.952606
   8791,       18148.,    1928.2002,   466.053589
   8792,       18148.,   1940.32727,   463.154541
   8793,       18148.,   1952.45435,   460.255524
   8794,       18148.,   1964.58142,   457.356476
   8795,       18148.,   1976.70837,   454.457428
   8796,       18148.,   1988.83545,   451.558411
   8797,       18148.,   2000.96252,   448.659363
   8798,       18148.,    2013.0896,   445.760345
   8799,       18148.,   2025.21655,   442.861298
   8800,       18148.,   2037.34363,    439.96228
   8801,       18148.,    2049.4707,   437.063232
   8802,       18148.,   2061.59766,   434.164215
   8803,       18148.,   2073.72485,   431.265167
   8804,       18148.,   2085.85181,    428.36615
   8805,       18148.,   2097.97876,   425.467102
   8806,       18148.,   2110.10596,   422.568054
   8807,       18148.,   2122.23291,   419.669037
   8808,       13611.,   12.1270456,   924.100952
   8809,       13611.,   24.2540913,   921.201904
   8810,       13611.,   36.3811378,   918.302917
   8811,       13611.,   48.5081825,    915.40387
   8812,       13611.,   60.6352272,   912.504822
   8813,       13611.,   72.7622757,   909.605774
   8814,       13611.,   84.8893204,   906.706787
   8815,       13611.,   97.0163651,   903.807739
   8816,       13611.,    109.14341,   900.908691
   8817,       13611.,   121.270454,   898.009644
   8818,       13611.,   133.397507,   895.110596
   8819,       13611.,   145.524551,   892.211609
   8820,       13611.,   157.651596,   889.312561
   8821,       13611.,   169.778641,   886.413513
   8822,       13611.,   181.905685,   883.514465
   8823,       13611.,    194.03273,   880.615479
   8824,       13611.,   206.159775,   877.716431
   8825,       13611.,   218.286819,   874.817383
   8826,       13611.,   230.413864,   871.918335
   8827,       13611.,   242.540909,   869.019348
   8828,       13611.,   254.667953,     866.1203
   8829,       13611.,   266.795013,   863.221252
   8830,       13611.,   278.922058,   860.322205
   8831,       13611.,   291.049103,   857.423157
   8832,       13611.,   303.176147,    854.52417
   8833,       13611.,   315.303192,   851.625122
   8834,       13611.,   327.430237,   848.726074
   8835,       13611.,   339.557281,   845.827026
   8836,       13611.,   351.684326,    842.92804
   8837,       13611.,   363.811371,   840.028992
   8838,       13611.,   375.938416,   837.129944
   8839,       13611.,    388.06546,   834.230896
   8840,       13611.,   400.192505,   831.331848
   8841,       13611.,    412.31955,   828.432861
   8842,       13611.,   424.446594,   825.533813
   8843,       13611.,   436.573639,   822.634766
   8844,       13611.,   448.700684,   819.735718
   8845,       13611.,   460.827728,   816.836731
   8846,       13611.,   472.954773,   813.937683
   8847,       13611.,   485.081818,   811.038635
   8848,       13611.,   497.208862,   808.139587
   8849,       13611.,   509.335907,    805.24054
   8850,       13611.,   521.462952,   802.341553
   8851,       13611.,   533.590027,   799.442505
   8852,       13611.,   545.717041,   796.543457
   8853,       13611.,   557.844116,   793.644409
   8854,       13611.,    569.97113,   790.745422
   8855,       13611.,   582.098206,   787.846375
   8856,       13611.,    594.22522,   784.947327
   8857,       13611.,   606.352295,   782.048279
   8858,       13611.,   618.479309,   779.149231
   8859,       13611.,   630.606384,   776.250244
   8860,       13611.,   642.733398,   773.351196
   8861,       13611.,   654.860474,   770.452148
   8862,       13611.,   666.987488,   767.553101
   8863,       13611.,   679.114563,   764.654114
   8864,       13611.,   691.241577,   761.755066
   8865,       13611.,   703.368652,   758.856018
   8866,       13611.,   715.495667,    755.95697
   8867,       13611.,   727.622742,   753.057983
   8868,       13611.,   739.749756,   750.158936
   8869,       13611.,   751.876831,   747.259888
   8870,       13611.,   764.003845,    744.36084
   8871,       13611.,    776.13092,   741.461792
   8872,       13611.,   788.257935,   738.562805
   8873,       13611.,    800.38501,   735.663757
   8874,       13611.,   812.512024,   732.764709
   8875,       13611.,   824.639099,   729.865662
   8876,       13611.,   836.766113,   726.966675
   8877,       13611.,   848.893188,   724.067627
   8878,       13611.,   861.020203,   721.168579
   8879,       13611.,   873.147278,   718.269531
   8880,       13611.,   885.274292,   715.370483
   8881,       13611.,   897.401367,   712.471497
   8882,       13611.,   909.528381,   709.572449
   8883,       13611.,   921.655457,   706.673401
   8884,       13611.,   933.782471,   703.774353
   8885,       13611.,   945.909546,   700.875366
   8886,       13611.,   958.036621,   697.976318
   8887,       13611.,   970.163635,   695.077271
   8888,       13611.,    982.29071,   692.178223
   8889,       13611.,   994.417725,   689.279175
   8890,       13611.,    1006.5448,   686.380188
   8891,       13611.,   1018.67181,    683.48114
   8892,       13611.,   1030.79883,   680.582092
   8893,       13611.,    1042.9259,   677.683044
   8894,       13611.,   1055.05298,   674.784058
   8895,       13611.,   1067.18005,    671.88501
   8896,       13611.,   1079.30701,   668.985962
   8897,       13611.,   1091.43408,   666.086914
   8898,       13611.,   1103.56116,   663.187927
   8899,       13611.,   1115.68823,   660.288879
   8900,       13611.,   1127.81519,   657.389832
   8901,       13611.,   1139.94226,   654.490784
   8902,       13611.,   1152.06934,   651.591736
   8903,       13611.,   1164.19641,   648.692749
   8904,       13611.,   1176.32336,   645.793701
   8905,       13611.,   1188.45044,   642.894653
   8906,       13611.,   1200.57751,   639.995605
   8907,       13611.,   1212.70459,   637.096619
   8908,       13611.,   1224.83154,   634.197571
   8909,       13611.,   1236.95862,   631.298523
   8910,       13611.,   1249.08569,   628.399475
   8911,       13611.,   1261.21277,   625.500427
   8912,       13611.,   1273.33972,    622.60144
   8913,       13611.,    1285.4668,   619.702393
   8914,       13611.,   1297.59387,   616.803345
   8915,       13611.,   1309.72095,   613.904297
   8916,       13611.,    1321.8479,    611.00531
   8917,       13611.,   1333.97498,   608.106262
   8918,       13611.,   1346.10205,   605.207214
   8919,       13611.,   1358.22913,   602.308167
   8920,       13611.,   1370.35608,   599.409119
   8921,       13611.,   1382.48315,   596.510132
   8922,       13611.,   1394.61023,   593.611084
   8923,       13611.,    1406.7373,   590.712036
   8924,       13611.,   1418.86426,   587.812988
   8925,       13611.,   1430.99133,   584.914001
   8926,       13611.,   1443.11841,   582.014954
   8927,       13611.,   1455.24548,   579.115906
   8928,       13611.,   1467.37256,   576.216858
   8929,       13611.,   1479.49951,   573.317871
   8930,       13611.,   1491.62659,   570.418823
   8931,       13611.,   1503.75366,   567.519775
   8932,       13611.,   1515.88074,   564.620728
   8933,       13611.,   1528.00769,    561.72168
   8934,       13611.,   1540.13477,   558.822693
   8935,       13611.,   1552.26184,   555.923645
   8936,       13611.,   1564.38892,   553.024597
   8937,       13611.,   1576.51587,   550.125549
   8938,       13611.,   1588.64294,   547.226562
   8939,       13611.,   1600.77002,   544.327515
   8940,       13611.,   1612.89709,   541.428467
   8941,       13611.,   1625.02405,   538.529419
   8942,       13611.,   1637.15112,   535.630371
   8943,       13611.,    1649.2782,   532.731384
   8944,       13611.,   1661.40527,   529.832336
   8945,       13611.,   1673.53223,   526.933289
   8946,       13611.,    1685.6593,   524.034241
   8947,       13611.,   1697.78638,   521.135254
   8948,       13611.,   1709.91345,   518.236206
   8949,       13611.,   1722.04041,   515.337158
   8950,       13611.,   1734.16748,    512.43811
   8951,       13611.,   1746.29456,   509.539093
   8952,       13611.,   1758.42163,   506.640045
   8953,       13611.,   1770.54858,   503.741028
   8954,       13611.,   1782.67566,    500.84198
   8955,       13611.,   1794.80273,   497.942963
   8956,       13611.,   1806.92981,   495.043915
   8957,       13611.,   1819.05676,   492.144897
   8958,       13611.,   1831.18384,    489.24585
   8959,       13611.,   1843.31091,   486.346832
   8960,       13611.,   1855.43799,   483.447784
   8961,       13611.,   1867.56494,   480.548737
   8962,       13611.,   1879.69202,   477.649719
   8963,       13611.,   1891.81909,   474.750671
   8964,       13611.,   1903.94617,   471.851654
   8965,       13611.,   1916.07324,   468.952606
   8966,       13611.,    1928.2002,   466.053589
   8967,       13611.,   1940.32727,   463.154541
   8968,       13611.,   1952.45435,   460.255524
   8969,       13611.,   1964.58142,   457.356476
   8970,       13611.,   1976.70837,   454.457428
   8971,       13611.,   1988.83545,   451.558411
   8972,       13611.,   2000.96252,   448.659363
   8973,       13611.,    2013.0896,   445.760345
   8974,       13611.,   2025.21655,   442.861298
   8975,       13611.,   2037.34363,    439.96228
   8976,       13611.,    2049.4707,   437.063232
   8977,       13611.,   2061.59766,   434.164215
   8978,       13611.,   2073.72485,   431.265167
   8979,       13611.,   2085.85181,    428.36615
   8980,       13611.,   2097.97876,   425.467102
   8981,       13611.,   2110.10596,   422.568054
   8982,       13611.,   2122.23291,   419.669037
   8983,        9074.,   12.1270456,   924.100952
   8984,        9074.,   24.2540913,   921.201904
   8985,        9074.,   36.3811378,   918.302917
   8986,        9074.,   48.5081825,    915.40387
   8987,        9074.,   60.6352272,   912.504822
   8988,        9074.,   72.7622757,   909.605774
   8989,        9074.,   84.8893204,   906.706787
   8990,        9074.,   97.0163651,   903.807739
   8991,        9074.,    109.14341,   900.908691
   8992,        9074.,   121.270454,   898.009644
   8993,        9074.,   133.397507,   895.110596
   8994,        9074.,   145.524551,   892.211609
   8995,        9074.,   157.651596,   889.312561
   8996,        9074.,   169.778641,   886.413513
   8997,        9074.,   181.905685,   883.514465
   8998,        9074.,    194.03273,   880.615479
   8999,        9074.,   206.159775,   877.716431
   9000,        9074.,   218.286819,   874.817383
   9001,        9074.,   230.413864,   871.918335
   9002,        9074.,   242.540909,   869.019348
   9003,        9074.,   254.667953,     866.1203
   9004,        9074.,   266.795013,   863.221252
   9005,        9074.,   278.922058,   860.322205
   9006,        9074.,   291.049103,   857.423157
   9007,        9074.,   303.176147,    854.52417
   9008,        9074.,   315.303192,   851.625122
   9009,        9074.,   327.430237,   848.726074
   9010,        9074.,   339.557281,   845.827026
   9011,        9074.,   351.684326,    842.92804
   9012,        9074.,   363.811371,   840.028992
   9013,        9074.,   375.938416,   837.129944
   9014,        9074.,    388.06546,   834.230896
   9015,        9074.,   400.192505,   831.331848
   9016,        9074.,    412.31955,   828.432861
   9017,        9074.,   424.446594,   825.533813
   9018,        9074.,   436.573639,   822.634766
   9019,        9074.,   448.700684,   819.735718
   9020,        9074.,   460.827728,   816.836731
   9021,        9074.,   472.954773,   813.937683
   9022,        9074.,   485.081818,   811.038635
   9023,        9074.,   497.208862,   808.139587
   9024,        9074.,   509.335907,    805.24054
   9025,        9074.,   521.462952,   802.341553
   9026,        9074.,   533.590027,   799.442505
   9027,        9074.,   545.717041,   796.543457
   9028,        9074.,   557.844116,   793.644409
   9029,        9074.,    569.97113,   790.745422
   9030,        9074.,   582.098206,   787.846375
   9031,        9074.,    594.22522,   784.947327
   9032,        9074.,   606.352295,   782.048279
   9033,        9074.,   618.479309,   779.149231
   9034,        9074.,   630.606384,   776.250244
   9035,        9074.,   642.733398,   773.351196
   9036,        9074.,   654.860474,   770.452148
   9037,        9074.,   666.987488,   767.553101
   9038,        9074.,   679.114563,   764.654114
   9039,        9074.,   691.241577,   761.755066
   9040,        9074.,   703.368652,   758.856018
   9041,        9074.,   715.495667,    755.95697
   9042,        9074.,   727.622742,   753.057983
   9043,        9074.,   739.749756,   750.158936
   9044,        9074.,   751.876831,   747.259888
   9045,        9074.,   764.003845,    744.36084
   9046,        9074.,    776.13092,   741.461792
   9047,        9074.,   788.257935,   738.562805
   9048,        9074.,    800.38501,   735.663757
   9049,        9074.,   812.512024,   732.764709
   9050,        9074.,   824.639099,   729.865662
   9051,        9074.,   836.766113,   726.966675
   9052,        9074.,   848.893188,   724.067627
   9053,        9074.,   861.020203,   721.168579
   9054,        9074.,   873.147278,   718.269531
   9055,        9074.,   885.274292,   715.370483
   9056,        9074.,   897.401367,   712.471497
   9057,        9074.,   909.528381,   709.572449
   9058,        9074.,   921.655457,   706.673401
   9059,        9074.,   933.782471,   703.774353
   9060,        9074.,   945.909546,   700.875366
   9061,        9074.,   958.036621,   697.976318
   9062,        9074.,   970.163635,   695.077271
   9063,        9074.,    982.29071,   692.178223
   9064,        9074.,   994.417725,   689.279175
   9065,        9074.,    1006.5448,   686.380188
   9066,        9074.,   1018.67181,    683.48114
   9067,        9074.,   1030.79883,   680.582092
   9068,        9074.,    1042.9259,   677.683044
   9069,        9074.,   1055.05298,   674.784058
   9070,        9074.,   1067.18005,    671.88501
   9071,        9074.,   1079.30701,   668.985962
   9072,        9074.,   1091.43408,   666.086914
   9073,        9074.,   1103.56116,   663.187927
   9074,        9074.,   1115.68823,   660.288879
   9075,        9074.,   1127.81519,   657.389832
   9076,        9074.,   1139.94226,   654.490784
   9077,        9074.,   1152.06934,   651.591736
   9078,        9074.,   1164.19641,   648.692749
   9079,        9074.,   1176.32336,   645.793701
   9080,        9074.,   1188.45044,   642.894653
   9081,        9074.,   1200.57751,   639.995605
   9082,        9074.,   1212.70459,   637.096619
   9083,        9074.,   1224.83154,   634.197571
   9084,        9074.,   1236.95862,   631.298523
   9085,        9074.,   1249.08569,   628.399475
   9086,        9074.,   1261.21277,   625.500427
   9087,        9074.,   1273.33972,    622.60144
   9088,        9074.,    1285.4668,   619.702393
   9089,        9074.,   1297.59387,   616.803345
   9090,        9074.,   1309.72095,   613.904297
   9091,        9074.,    1321.8479,    611.00531
   9092,        9074.,   1333.97498,   608.106262
   9093,        9074.,   1346.10205,   605.207214
   9094,        9074.,   1358.22913,   602.308167
   9095,        9074.,   1370.35608,   599.409119
   9096,        9074.,   1382.48315,   596.510132
   9097,        9074.,   1394.61023,   593.611084
   9098,        9074.,    1406.7373,   590.712036
   9099,        9074.,   1418.86426,   587.812988
   9100,        9074.,   1430.99133,   584.914001
   9101,        9074.,   1443.11841,   582.014954
   9102,        9074.,   1455.24548,   579.115906
   9103,        9074.,   1467.37256,   576.216858
   9104,        9074.,   1479.49951,   573.317871
   9105,        9074.,   1491.62659,   570.418823
   9106,        9074.,   1503.75366,   567.519775
   9107,        9074.,   1515.88074,   564.620728
   9108,        9074.,   1528.00769,    561.72168
   9109,        9074.,   1540.13477,   558.822693
   9110,        9074.,   1552.26184,   555.923645
   9111,        9074.,   1564.38892,   553.024597
   9112,        9074.,   1576.51587,   550.125549
   9113,        9074.,   1588.64294,   547.226562
   9114,        9074.,   1600.77002,   544.327515
   9115,        9074.,   1612.89709,   541.428467
   9116,        9074.,   1625.02405,   538.529419
   9117,        9074.,   1637.15112,   535.630371
   9118,        9074.,    1649.2782,   532.731384
   9119,        9074.,   1661.40527,   529.832336
   9120,        9074.,   1673.53223,   526.933289
   9121,        9074.,    1685.6593,   524.034241
   9122,        9074.,   1697.78638,   521.135254
   9123,        9074.,   1709.91345,   518.236206
   9124,        9074.,   1722.04041,   515.337158
   9125,        9074.,   1734.16748,    512.43811
   9126,        9074.,   1746.29456,   509.539093
   9127,        9074.,   1758.42163,   506.640045
   9128,        9074.,   1770.54858,   503.741028
   9129,        9074.,   1782.67566,    500.84198
   9130,        9074.,   1794.80273,   497.942963
   9131,        9074.,   1806.92981,   495.043915
   9132,        9074.,   1819.05676,   492.144897
   9133,        9074.,   1831.18384,    489.24585
   9134,        9074.,   1843.31091,   486.346832
   9135,        9074.,   1855.43799,   483.447784
   9136,        9074.,   1867.56494,   480.548737
   9137,        9074.,   1879.69202,   477.649719
   9138,        9074.,   1891.81909,   474.750671
   9139,        9074.,   1903.94617,   471.851654
   9140,        9074.,   1916.07324,   468.952606
   9141,        9074.,    1928.2002,   466.053589
   9142,        9074.,   1940.32727,   463.154541
   9143,        9074.,   1952.45435,   460.255524
   9144,        9074.,   1964.58142,   457.356476
   9145,        9074.,   1976.70837,   454.457428
   9146,        9074.,   1988.83545,   451.558411
   9147,        9074.,   2000.96252,   448.659363
   9148,        9074.,    2013.0896,   445.760345
   9149,        9074.,   2025.21655,   442.861298
   9150,        9074.,   2037.34363,    439.96228
   9151,        9074.,    2049.4707,   437.063232
   9152,        9074.,   2061.59766,   434.164215
   9153,        9074.,   2073.72485,   431.265167
   9154,        9074.,   2085.85181,    428.36615
   9155,        9074.,   2097.97876,   425.467102
   9156,        9074.,   2110.10596,   422.568054
   9157,        9074.,   2122.23291,   419.669037
   9158,        4537.,   12.1270456,   924.100952
   9159,        4537.,   24.2540913,   921.201904
   9160,        4537.,   36.3811378,   918.302917
   9161,        4537.,   48.5081825,    915.40387
   9162,        4537.,   60.6352272,   912.504822
   9163,        4537.,   72.7622757,   909.605774
   9164,        4537.,   84.8893204,   906.706787
   9165,        4537.,   97.0163651,   903.807739
   9166,        4537.,    109.14341,   900.908691
   9167,        4537.,   121.270454,   898.009644
   9168,        4537.,   133.397507,   895.110596
   9169,        4537.,   145.524551,   892.211609
   9170,        4537.,   157.651596,   889.312561
   9171,        4537.,   169.778641,   886.413513
   9172,        4537.,   181.905685,   883.514465
   9173,        4537.,    194.03273,   880.615479
   9174,        4537.,   206.159775,   877.716431
   9175,        4537.,   218.286819,   874.817383
   9176,        4537.,   230.413864,   871.918335
   9177,        4537.,   242.540909,   869.019348
   9178,        4537.,   254.667953,     866.1203
   9179,        4537.,   266.795013,   863.221252
   9180,        4537.,   278.922058,   860.322205
   9181,        4537.,   291.049103,   857.423157
   9182,        4537.,   303.176147,    854.52417
   9183,        4537.,   315.303192,   851.625122
   9184,        4537.,   327.430237,   848.726074
   9185,        4537.,   339.557281,   845.827026
   9186,        4537.,   351.684326,    842.92804
   9187,        4537.,   363.811371,   840.028992
   9188,        4537.,   375.938416,   837.129944
   9189,        4537.,    388.06546,   834.230896
   9190,        4537.,   400.192505,   831.331848
   9191,        4537.,    412.31955,   828.432861
   9192,        4537.,   424.446594,   825.533813
   9193,        4537.,   436.573639,   822.634766
   9194,        4537.,   448.700684,   819.735718
   9195,        4537.,   460.827728,   816.836731
   9196,        4537.,   472.954773,   813.937683
   9197,        4537.,   485.081818,   811.038635
   9198,        4537.,   497.208862,   808.139587
   9199,        4537.,   509.335907,    805.24054
   9200,        4537.,   521.462952,   802.341553
   9201,        4537.,   533.590027,   799.442505
   9202,        4537.,   545.717041,   796.543457
   9203,        4537.,   557.844116,   793.644409
   9204,        4537.,    569.97113,   790.745422
   9205,        4537.,   582.098206,   787.846375
   9206,        4537.,    594.22522,   784.947327
   9207,        4537.,   606.352295,   782.048279
   9208,        4537.,   618.479309,   779.149231
   9209,        4537.,   630.606384,   776.250244
   9210,        4537.,   642.733398,   773.351196
   9211,        4537.,   654.860474,   770.452148
   9212,        4537.,   666.987488,   767.553101
   9213,        4537.,   679.114563,   764.654114
   9214,        4537.,   691.241577,   761.755066
   9215,        4537.,   703.368652,   758.856018
   9216,        4537.,   715.495667,    755.95697
   9217,        4537.,   727.622742,   753.057983
   9218,        4537.,   739.749756,   750.158936
   9219,        4537.,   751.876831,   747.259888
   9220,        4537.,   764.003845,    744.36084
   9221,        4537.,    776.13092,   741.461792
   9222,        4537.,   788.257935,   738.562805
   9223,        4537.,    800.38501,   735.663757
   9224,        4537.,   812.512024,   732.764709
   9225,        4537.,   824.639099,   729.865662
   9226,        4537.,   836.766113,   726.966675
   9227,        4537.,   848.893188,   724.067627
   9228,        4537.,   861.020203,   721.168579
   9229,        4537.,   873.147278,   718.269531
   9230,        4537.,   885.274292,   715.370483
   9231,        4537.,   897.401367,   712.471497
   9232,        4537.,   909.528381,   709.572449
   9233,        4537.,   921.655457,   706.673401
   9234,        4537.,   933.782471,   703.774353
   9235,        4537.,   945.909546,   700.875366
   9236,        4537.,   958.036621,   697.976318
   9237,        4537.,   970.163635,   695.077271
   9238,        4537.,    982.29071,   692.178223
   9239,        4537.,   994.417725,   689.279175
   9240,        4537.,    1006.5448,   686.380188
   9241,        4537.,   1018.67181,    683.48114
   9242,        4537.,   1030.79883,   680.582092
   9243,        4537.,    1042.9259,   677.683044
   9244,        4537.,   1055.05298,   674.784058
   9245,        4537.,   1067.18005,    671.88501
   9246,        4537.,   1079.30701,   668.985962
   9247,        4537.,   1091.43408,   666.086914
   9248,        4537.,   1103.56116,   663.187927
   9249,        4537.,   1115.68823,   660.288879
   9250,        4537.,   1127.81519,   657.389832
   9251,        4537.,   1139.94226,   654.490784
   9252,        4537.,   1152.06934,   651.591736
   9253,        4537.,   1164.19641,   648.692749
   9254,        4537.,   1176.32336,   645.793701
   9255,        4537.,   1188.45044,   642.894653
   9256,        4537.,   1200.57751,   639.995605
   9257,        4537.,   1212.70459,   637.096619
   9258,        4537.,   1224.83154,   634.197571
   9259,        4537.,   1236.95862,   631.298523
   9260,        4537.,   1249.08569,   628.399475
   9261,        4537.,   1261.21277,   625.500427
   9262,        4537.,   1273.33972,    622.60144
   9263,        4537.,    1285.4668,   619.702393
   9264,        4537.,   1297.59387,   616.803345
   9265,        4537.,   1309.72095,   613.904297
   9266,        4537.,    1321.8479,    611.00531
   9267,        4537.,   1333.97498,   608.106262
   9268,        4537.,   1346.10205,   605.207214
   9269,        4537.,   1358.22913,   602.308167
   9270,        4537.,   1370.35608,   599.409119
   9271,        4537.,   1382.48315,   596.510132
   9272,        4537.,   1394.61023,   593.611084
   9273,        4537.,    1406.7373,   590.712036
   9274,        4537.,   1418.86426,   587.812988
   9275,        4537.,   1430.99133,   584.914001
   9276,        4537.,   1443.11841,   582.014954
   9277,        4537.,   1455.24548,   579.115906
   9278,        4537.,   1467.37256,   576.216858
   9279,        4537.,   1479.49951,   573.317871
   9280,        4537.,   1491.62659,   570.418823
   9281,        4537.,   1503.75366,   567.519775
   9282,        4537.,   1515.88074,   564.620728
   9283,        4537.,   1528.00769,    561.72168
   9284,        4537.,   1540.13477,   558.822693
   9285,        4537.,   1552.26184,   555.923645
   9286,        4537.,   1564.38892,   553.024597
   9287,        4537.,   1576.51587,   550.125549
   9288,        4537.,   1588.64294,   547.226562
   9289,        4537.,   1600.77002,   544.327515
   9290,        4537.,   1612.89709,   541.428467
   9291,        4537.,   1625.02405,   538.529419
   9292,        4537.,   1637.15112,   535.630371
   9293,        4537.,    1649.2782,   532.731384
   9294,        4537.,   1661.40527,   529.832336
   9295,        4537.,   1673.53223,   526.933289
   9296,        4537.,    1685.6593,   524.034241
   9297,        4537.,   1697.78638,   521.135254
   9298,        4537.,   1709.91345,   518.236206
   9299,        4537.,   1722.04041,   515.337158
   9300,        4537.,   1734.16748,    512.43811
   9301,        4537.,   1746.29456,   509.539093
   9302,        4537.,   1758.42163,   506.640045
   9303,        4537.,   1770.54858,   503.741028
   9304,        4537.,   1782.67566,    500.84198
   9305,        4537.,   1794.80273,   497.942963
   9306,        4537.,   1806.92981,   495.043915
   9307,        4537.,   1819.05676,   492.144897
   9308,        4537.,   1831.18384,    489.24585
   9309,        4537.,   1843.31091,   486.346832
   9310,        4537.,   1855.43799,   483.447784
   9311,        4537.,   1867.56494,   480.548737
   9312,        4537.,   1879.69202,   477.649719
   9313,        4537.,   1891.81909,   474.750671
   9314,        4537.,   1903.94617,   471.851654
   9315,        4537.,   1916.07324,   468.952606
   9316,        4537.,    1928.2002,   466.053589
   9317,        4537.,   1940.32727,   463.154541
   9318,        4537.,   1952.45435,   460.255524
   9319,        4537.,   1964.58142,   457.356476
   9320,        4537.,   1976.70837,   454.457428
   9321,        4537.,   1988.83545,   451.558411
   9322,        4537.,   2000.96252,   448.659363
   9323,        4537.,    2013.0896,   445.760345
   9324,        4537.,   2025.21655,   442.861298
   9325,        4537.,   2037.34363,    439.96228
   9326,        4537.,    2049.4707,   437.063232
   9327,        4537.,   2061.59766,   434.164215
   9328,        4537.,   2073.72485,   431.265167
   9329,        4537.,   2085.85181,    428.36615
   9330,        4537.,   2097.97876,   425.467102
   9331,        4537.,   2110.10596,   422.568054
   9332,        4537.,   2122.23291,   419.669037
   9333,           0.,   12.1270456,   924.100952
   9334,           0.,   24.2540913,   921.201904
   9335,           0.,   36.3811378,   918.302917
   9336,           0.,   48.5081825,    915.40387
   9337,           0.,   60.6352272,   912.504822
   9338,           0.,   72.7622757,   909.605774
   9339,           0.,   84.8893204,   906.706787
   9340,           0.,   97.0163651,   903.807739
   9341,           0.,    109.14341,   900.908691
   9342,           0.,   121.270454,   898.009644
   9343,           0.,   133.397507,   895.110596
   9344,           0.,   145.524551,   892.211609
   9345,           0.,   157.651596,   889.312561
   9346,           0.,   169.778641,   886.413513
   9347,           0.,   181.905685,   883.514465
   9348,           0.,    194.03273,   880.615479
   9349,           0.,   206.159775,   877.716431
   9350,           0.,   218.286819,   874.817383
   9351,           0.,   230.413864,   871.918335
   9352,           0.,   242.540909,   869.019348
   9353,           0.,   254.667953,     866.1203
   9354,           0.,   266.795013,   863.221252
   9355,           0.,   278.922058,   860.322205
   9356,           0.,   291.049103,   857.423157
   9357,           0.,   303.176147,    854.52417
   9358,           0.,   315.303192,   851.625122
   9359,           0.,   327.430237,   848.726074
   9360,           0.,   339.557281,   845.827026
   9361,           0.,   351.684326,    842.92804
   9362,           0.,   363.811371,   840.028992
   9363,           0.,   375.938416,   837.129944
   9364,           0.,    388.06546,   834.230896
   9365,           0.,   400.192505,   831.331848
   9366,           0.,    412.31955,   828.432861
   9367,           0.,   424.446594,   825.533813
   9368,           0.,   436.573639,   822.634766
   9369,           0.,   448.700684,   819.735718
   9370,           0.,   460.827728,   816.836731
   9371,           0.,   472.954773,   813.937683
   9372,           0.,   485.081818,   811.038635
   9373,           0.,   497.208862,   808.139587
   9374,           0.,   509.335907,    805.24054
   9375,           0.,   521.462952,   802.341553
   9376,           0.,   533.590027,   799.442505
   9377,           0.,   545.717041,   796.543457
   9378,           0.,   557.844116,   793.644409
   9379,           0.,    569.97113,   790.745422
   9380,           0.,   582.098206,   787.846375
   9381,           0.,    594.22522,   784.947327
   9382,           0.,   606.352295,   782.048279
   9383,           0.,   618.479309,   779.149231
   9384,           0.,   630.606384,   776.250244
   9385,           0.,   642.733398,   773.351196
   9386,           0.,   654.860474,   770.452148
   9387,           0.,   666.987488,   767.553101
   9388,           0.,   679.114563,   764.654114
   9389,           0.,   691.241577,   761.755066
   9390,           0.,   703.368652,   758.856018
   9391,           0.,   715.495667,    755.95697
   9392,           0.,   727.622742,   753.057983
   9393,           0.,   739.749756,   750.158936
   9394,           0.,   751.876831,   747.259888
   9395,           0.,   764.003845,    744.36084
   9396,           0.,    776.13092,   741.461792
   9397,           0.,   788.257935,   738.562805
   9398,           0.,    800.38501,   735.663757
   9399,           0.,   812.512024,   732.764709
   9400,           0.,   824.639099,   729.865662
   9401,           0.,   836.766113,   726.966675
   9402,           0.,   848.893188,   724.067627
   9403,           0.,   861.020203,   721.168579
   9404,           0.,   873.147278,   718.269531
   9405,           0.,   885.274292,   715.370483
   9406,           0.,   897.401367,   712.471497
   9407,           0.,   909.528381,   709.572449
   9408,           0.,   921.655457,   706.673401
   9409,           0.,   933.782471,   703.774353
   9410,           0.,   945.909546,   700.875366
   9411,           0.,   958.036621,   697.976318
   9412,           0.,   970.163635,   695.077271
   9413,           0.,    982.29071,   692.178223
   9414,           0.,   994.417725,   689.279175
   9415,           0.,    1006.5448,   686.380188
   9416,           0.,   1018.67181,    683.48114
   9417,           0.,   1030.79883,   680.582092
   9418,           0.,    1042.9259,   677.683044
   9419,           0.,   1055.05298,   674.784058
   9420,           0.,   1067.18005,    671.88501
   9421,           0.,   1079.30701,   668.985962
   9422,           0.,   1091.43408,   666.086914
   9423,           0.,   1103.56116,   663.187927
   9424,           0.,   1115.68823,   660.288879
   9425,           0.,   1127.81519,   657.389832
   9426,           0.,   1139.94226,   654.490784
   9427,           0.,   1152.06934,   651.591736
   9428,           0.,   1164.19641,   648.692749
   9429,           0.,   1176.32336,   645.793701
   9430,           0.,   1188.45044,   642.894653
   9431,           0.,   1200.57751,   639.995605
   9432,           0.,   1212.70459,   637.096619
   9433,           0.,   1224.83154,   634.197571
   9434,           0.,   1236.95862,   631.298523
   9435,           0.,   1249.08569,   628.399475
   9436,           0.,   1261.21277,   625.500427
   9437,           0.,   1273.33972,    622.60144
   9438,           0.,    1285.4668,   619.702393
   9439,           0.,   1297.59387,   616.803345
   9440,           0.,   1309.72095,   613.904297
   9441,           0.,    1321.8479,    611.00531
   9442,           0.,   1333.97498,   608.106262
   9443,           0.,   1346.10205,   605.207214
   9444,           0.,   1358.22913,   602.308167
   9445,           0.,   1370.35608,   599.409119
   9446,           0.,   1382.48315,   596.510132
   9447,           0.,   1394.61023,   593.611084
   9448,           0.,    1406.7373,   590.712036
   9449,           0.,   1418.86426,   587.812988
   9450,           0.,   1430.99133,   584.914001
   9451,           0.,   1443.11841,   582.014954
   9452,           0.,   1455.24548,   579.115906
   9453,           0.,   1467.37256,   576.216858
   9454,           0.,   1479.49951,   573.317871
   9455,           0.,   1491.62659,   570.418823
   9456,           0.,   1503.75366,   567.519775
   9457,           0.,   1515.88074,   564.620728
   9458,           0.,   1528.00769,    561.72168
   9459,           0.,   1540.13477,   558.822693
   9460,           0.,   1552.26184,   555.923645
   9461,           0.,   1564.38892,   553.024597
   9462,           0.,   1576.51587,   550.125549
   9463,           0.,   1588.64294,   547.226562
   9464,           0.,   1600.77002,   544.327515
   9465,           0.,   1612.89709,   541.428467
   9466,           0.,   1625.02405,   538.529419
   9467,           0.,   1637.15112,   535.630371
   9468,           0.,    1649.2782,   532.731384
   9469,           0.,   1661.40527,   529.832336
   9470,           0.,   1673.53223,   526.933289
   9471,           0.,    1685.6593,   524.034241
   9472,           0.,   1697.78638,   521.135254
   9473,           0.,   1709.91345,   518.236206
   9474,           0.,   1722.04041,   515.337158
   9475,           0.,   1734.16748,    512.43811
   9476,           0.,   1746.29456,   509.539093
   9477,           0.,   1758.42163,   506.640045
   9478,           0.,   1770.54858,   503.741028
   9479,           0.,   1782.67566,    500.84198
   9480,           0.,   1794.80273,   497.942963
   9481,           0.,   1806.92981,   495.043915
   9482,           0.,   1819.05676,   492.144897
   9483,           0.,   1831.18384,    489.24585
   9484,           0.,   1843.31091,   486.346832
   9485,           0.,   1855.43799,   483.447784
   9486,           0.,   1867.56494,   480.548737
   9487,           0.,   1879.69202,   477.649719
   9488,           0.,   1891.81909,   474.750671
   9489,           0.,   1903.94617,   471.851654
   9490,           0.,   1916.07324,   468.952606
   9491,           0.,    1928.2002,   466.053589
   9492,           0.,   1940.32727,   463.154541
   9493,           0.,   1952.45435,   460.255524
   9494,           0.,   1964.58142,   457.356476
   9495,           0.,   1976.70837,   454.457428
   9496,           0.,   1988.83545,   451.558411
   9497,           0.,   2000.96252,   448.659363
   9498,           0.,    2013.0896,   445.760345
   9499,           0.,   2025.21655,   442.861298
   9500,           0.,   2037.34363,    439.96228
   9501,           0.,    2049.4707,   437.063232
   9502,           0.,   2061.59766,   434.164215
   9503,           0.,   2073.72485,   431.265167
   9504,           0.,   2085.85181,    428.36615
   9505,           0.,   2097.97876,   425.467102
   9506,           0.,   2110.10596,   422.568054
   9507,           0.,   2122.23291,   419.669037
*Element, type=B31
 1,   1, 141
 2, 141, 142
 3, 142, 143
 4, 143, 144
 5, 144, 145
 6, 145, 146
 7, 146, 147
 8, 147, 148
 9, 148, 149
10, 149, 150
11, 150, 151
12, 151, 152
13, 152, 153
14, 153, 154
15, 154, 155
16, 155, 156
17, 156, 157
18, 157, 158
19, 158, 159
20, 159, 160
21, 160, 161
22, 161, 162
23, 162, 163
24, 163, 164
25, 164, 165
26, 165, 166
27, 166, 167
28, 167, 168
29, 168, 169
30, 169, 170
31, 170, 171
32, 171, 172
33, 172,   2
34,   2, 173
35, 173, 174
36, 174, 175
37, 175, 176
38, 176, 177
39, 177, 178
40, 178, 179
41, 179, 180
42, 180, 181
43, 181, 182
44, 182, 183
45, 183, 184
46, 184, 185
47, 185, 186
48, 186, 187
49, 187, 188
50, 188, 189
51, 189, 190
52, 190, 191
53, 191, 192
54, 192, 193
55, 193, 194
56, 194, 195
57, 195, 196
58, 196, 197
59, 197, 198
60, 198, 199
61, 199, 200
62, 200, 201
63, 201, 202
64, 202, 203
65, 203, 204
66, 204, 205
67, 205, 206
68, 206, 207
69, 207, 208
70, 208, 209
71, 209, 210
72, 210, 211
73, 211,   3
 74,   4, 212
 75, 212, 213
 76, 213, 214
 77, 214, 215
 78, 215, 216
 79, 216, 217
 80, 217, 218
 81, 218, 219
 82, 219, 220
 83, 220, 221
 84, 221, 222
 85, 222, 223
 86, 223, 224
 87, 224, 225
 88, 225, 226
 89, 226, 227
 90, 227, 228
 91, 228, 229
 92, 229, 230
 93, 230, 231
 94, 231, 232
 95, 232, 233
 96, 233, 234
 97, 234, 235
 98, 235, 236
 99, 236, 237
100, 237, 238
101, 238, 239
102, 239, 240
103, 240, 241
104, 241, 242
105, 242, 243
106, 243, 244
107, 244, 245
108, 245, 246
109, 246, 247
110, 247, 248
111, 248, 249
112, 249, 250
113, 250, 251
114, 251, 252
115, 252, 253
116, 253, 254
117, 254, 255
118, 255, 256
119, 256, 257
120, 257, 258
121, 258, 259
122, 259, 260
123, 260, 261
124, 261, 262
125, 262, 263
126, 263, 264
127, 264, 265
128, 265, 266
129, 266, 267
130, 267, 268
131, 268, 269
132, 269, 270
133, 270, 271
134, 271, 272
135, 272, 273
136, 273, 274
137, 274, 275
138, 275, 276
139, 276,   1
140,   5, 277
141, 277, 278
142, 278, 279
143, 279, 280
144, 280, 281
145, 281, 282
146, 282, 283
147, 283, 284
148, 284, 285
149, 285, 286
150, 286, 287
151, 287, 288
152, 288, 289
153, 289, 290
154, 290, 291
155, 291, 292
156, 292, 293
157, 293, 294
158, 294, 295
159, 295, 296
160, 296, 297
161, 297, 298
162, 298, 299
163, 299, 300
164, 300, 301
165, 301,   2
166,   6, 302
167, 302, 303
168, 303, 304
169, 304, 305
170, 305, 306
171, 306, 307
172, 307, 308
173, 308, 309
174, 309, 310
175, 310, 311
176, 311, 312
177, 312, 313
178, 313, 314
179, 314, 315
180, 315, 316
181, 316, 317
182, 317, 318
183, 318, 319
184, 319, 320
185, 320, 321
186, 321, 322
187, 322, 323
188, 323, 324
189, 324, 325
190, 325, 326
191, 326, 327
192, 327, 328
193, 328, 329
194, 329, 330
195, 330, 331
196, 331, 332
197, 332, 333
198, 333, 334
199, 334, 335
200, 335, 336
201, 336, 337
202, 337, 338
203, 338, 339
204, 339, 340
205, 340, 341
206, 341, 342
207, 342, 343
208, 343, 344
209, 344, 345
210, 345, 346
211, 346, 347
212, 347, 348
213, 348, 349
214, 349, 350
215, 350, 351
216, 351, 352
217, 352, 353
218, 353, 354
219, 354, 355
220, 355, 356
221, 356, 357
222, 357, 358
223, 358, 359
224, 359, 360
225, 360, 361
226, 361, 362
227, 362, 363
228, 363, 364
229, 364, 365
230, 365, 366
231, 366,   4
232,   7, 367
233, 367, 368
234, 368, 369
235, 369, 370
236, 370, 371
237, 371, 372
238, 372, 373
239, 373, 374
240, 374, 375
241, 375, 376
242, 376, 377
243, 377, 378
244, 378, 379
245, 379, 380
246, 380, 381
247, 381, 382
248, 382, 383
249, 383, 384
250, 384, 385
251, 385, 386
252, 386, 387
253, 387, 388
254, 388, 389
255, 389, 390
256, 390, 391
257, 391, 392
258, 392, 393
259, 393, 394
260, 394, 395
261, 395, 396
262, 396, 397
263, 397, 398
264, 398, 399
265, 399, 400
266, 400, 401
267, 401, 402
268, 402, 403
269, 403, 404
270, 404, 405
271, 405, 406
272, 406, 407
273, 407, 408
274, 408, 409
275, 409, 410
276, 410, 411
277, 411, 412
278, 412, 413
279, 413, 414
280, 414, 415
281, 415, 416
282, 416, 417
283, 417, 418
284, 418, 419
285, 419, 420
286, 420, 421
287, 421, 422
288, 422, 423
289, 423, 424
290, 424, 425
291, 425, 426
292, 426, 427
293, 427, 428
294, 428, 429
295, 429, 430
296, 430, 431
297, 431,   6
298,   8, 432
299, 432, 433
300, 433, 434
301, 434, 435
302, 435, 436
303, 436, 437
304, 437, 438
305, 438, 439
306, 439, 440
307, 440, 441
308, 441, 442
309, 442, 443
310, 443, 444
311, 444, 445
312, 445, 446
313, 446, 447
314, 447, 448
315, 448, 449
316, 449, 450
317, 450, 451
318, 451, 452
319, 452, 453
320, 453, 454
321, 454, 455
322, 455, 456
323, 456, 457
324, 457, 458
325, 458, 459
326, 459, 460
327, 460, 461
328, 461, 462
329, 462, 463
330, 463, 464
331, 464, 465
332, 465, 466
333, 466, 467
334, 467, 468
335, 468, 469
336, 469, 470
337, 470, 471
338, 471, 472
339, 472, 473
340, 473, 474
341, 474, 475
342, 475, 476
343, 476, 477
344, 477, 478
345, 478, 479
346, 479, 480
347, 480, 481
348, 481, 482
349, 482, 483
350, 483, 484
351, 484, 485
352, 485, 486
353, 486, 487
354, 487, 488
355, 488, 489
356, 489, 490
357, 490, 491
358, 491, 492
359, 492, 493
360, 493, 494
361, 494, 495
362, 495, 496
363, 496,   7
364,   9, 497
365, 497, 498
366, 498, 499
367, 499, 500
368, 500, 501
369, 501, 502
370, 502, 503
371, 503, 504
372, 504, 505
373, 505, 506
374, 506, 507
375, 507, 508
376, 508, 509
377, 509, 510
378, 510, 511
379, 511, 512
380, 512, 513
381, 513, 514
382, 514, 515
383, 515, 516
384, 516, 517
385, 517, 518
386, 518, 519
387, 519, 520
388, 520, 521
389, 521, 522
390, 522, 523
391, 523, 524
392, 524, 525
393, 525, 526
394, 526, 527
395, 527, 528
396, 528, 529
397, 529, 530
398, 530, 531
399, 531, 532
400, 532, 533
401, 533, 534
402, 534, 535
403, 535, 536
404, 536, 537
405, 537, 538
406, 538, 539
407, 539, 540
408, 540, 541
409, 541, 542
410, 542, 543
411, 543, 544
412, 544, 545
413, 545, 546
414, 546, 547
415, 547, 548
416, 548, 549
417, 549, 550
418, 550, 551
419, 551, 552
420, 552, 553
421, 553, 554
422, 554, 555
423, 555, 556
424, 556, 557
425, 557, 558
426, 558, 559
427, 559, 560
428, 560, 561
429, 561,   8
430,  10, 562
431, 562, 563
432, 563, 564
433, 564, 565
434, 565, 566
435, 566, 567
436, 567, 568
437, 568, 569
438, 569, 570
439, 570, 571
440, 571, 572
441, 572, 573
442, 573, 574
443, 574, 575
444, 575, 576
445, 576, 577
446, 577, 578
447, 578, 579
448, 579, 580
449, 580, 581
450, 581, 582
451, 582, 583
452, 583, 584
453, 584, 585
454, 585, 586
455, 586, 587
456, 587, 588
457, 588, 589
458, 589, 590
459, 590, 591
460, 591, 592
461, 592, 593
462, 593, 594
463, 594, 595
464, 595, 596
465, 596, 597
466, 597, 598
467, 598, 599
468, 599, 600
469, 600, 601
470, 601, 602
471, 602, 603
472, 603, 604
473, 604, 605
474, 605, 606
475, 606, 607
476, 607, 608
477, 608, 609
478, 609, 610
479, 610, 611
480, 611, 612
481, 612, 613
482, 613, 614
483, 614, 615
484, 615, 616
485, 616, 617
486, 617, 618
487, 618, 619
488, 619, 620
489, 620, 621
490, 621, 622
491, 622, 623
492, 623, 624
493, 624, 625
494, 625, 626
495, 626,   9
496,  11, 627
497, 627, 628
498, 628, 629
499, 629, 630
500, 630, 631
501, 631, 632
502, 632, 633
503, 633, 634
504, 634, 635
505, 635, 636
506, 636, 637
507, 637, 638
508, 638, 639
509, 639, 640
510, 640, 641
511, 641, 642
512, 642, 643
513, 643, 644
514, 644, 645
515, 645, 646
516, 646, 647
517, 647, 648
518, 648, 649
519, 649, 650
520, 650, 651
521, 651, 652
522, 652, 653
523, 653, 654
524, 654, 655
525, 655, 656
526, 656, 657
527, 657, 658
528, 658, 659
529, 659, 660
530, 660, 661
531, 661, 662
532, 662, 663
533, 663, 664
534, 664, 665
535, 665, 666
536, 666, 667
537, 667, 668
538, 668, 669
539, 669, 670
540, 670, 671
541, 671, 672
542, 672, 673
543, 673, 674
544, 674, 675
545, 675, 676
546, 676, 677
547, 677, 678
548, 678, 679
549, 679, 680
550, 680, 681
551, 681, 682
552, 682, 683
553, 683, 684
554, 684, 685
555, 685, 686
556, 686, 687
557, 687, 688
558, 688, 689
559, 689, 690
560, 690, 691
561, 691,  10
562,  12, 692
563, 692, 693
564, 693, 694
565, 694, 695
566, 695, 696
567, 696, 697
568, 697, 698
569, 698, 699
570, 699, 700
571, 700, 701
572, 701, 702
573, 702, 703
574, 703, 704
575, 704, 705
576, 705, 706
577, 706, 707
578, 707, 708
579, 708, 709
580, 709, 710
581, 710, 711
582, 711, 712
583, 712, 713
584, 713, 714
585, 714, 715
586, 715, 716
587, 716, 717
588, 717, 718
589, 718, 719
590, 719, 720
591, 720, 721
592, 721, 722
593, 722, 723
594, 723, 724
595, 724, 725
596, 725, 726
597, 726, 727
598, 727, 728
599, 728, 729
600, 729, 730
601, 730, 731
602, 731, 732
603, 732, 733
604, 733, 734
605, 734, 735
606, 735, 736
607, 736, 737
608, 737, 738
609, 738, 739
610, 739, 740
611, 740, 741
612, 741, 742
613, 742, 743
614, 743, 744
615, 744, 745
616, 745, 746
617, 746, 747
618, 747, 748
619, 748, 749
620, 749, 750
621, 750, 751
622, 751, 752
623, 752, 753
624, 753, 754
625, 754, 755
626, 755, 756
627, 756,  11
628,  13, 757
629, 757, 758
630, 758, 759
631, 759, 760
632, 760, 761
633, 761, 762
634, 762, 763
635, 763, 764
636, 764, 765
637, 765, 766
638, 766, 767
639, 767, 768
640, 768, 769
641, 769, 770
642, 770, 771
643, 771, 772
644, 772, 773
645, 773, 774
646, 774, 775
647, 775, 776
648, 776, 777
649, 777, 778
650, 778, 779
651, 779, 780
652, 780, 781
653, 781, 782
654, 782, 783
655, 783, 784
656, 784, 785
657, 785, 786
658, 786, 787
659, 787, 788
660, 788, 789
661, 789, 790
662, 790, 791
663, 791, 792
664, 792, 793
665, 793, 794
666, 794, 795
667, 795, 796
668, 796, 797
669, 797, 798
670, 798, 799
671, 799, 800
672, 800, 801
673, 801, 802
674, 802, 803
675, 803, 804
676, 804, 805
677, 805, 806
678, 806, 807
679, 807, 808
680, 808, 809
681, 809, 810
682, 810, 811
683, 811, 812
684, 812, 813
685, 813, 814
686, 814, 815
687, 815, 816
688, 816, 817
689, 817, 818
690, 818, 819
691, 819, 820
692, 820, 821
693, 821,  12
694,  14, 822
695, 822, 823
696, 823, 824
697, 824, 825
698, 825, 826
699, 826, 827
700, 827, 828
701, 828, 829
702, 829, 830
703, 830, 831
704, 831, 832
705, 832, 833
706, 833, 834
707, 834, 835
708, 835, 836
709, 836, 837
710, 837, 838
711, 838, 839
712, 839, 840
713, 840, 841
714, 841, 842
715, 842, 843
716, 843, 844
717, 844, 845
718, 845, 846
719, 846, 847
720, 847, 848
721, 848, 849
722, 849, 850
723, 850, 851
724, 851, 852
725, 852, 853
726, 853, 854
727, 854, 855
728, 855, 856
729, 856, 857
730, 857, 858
731, 858, 859
732, 859, 860
733, 860, 861
734, 861, 862
735, 862, 863
736, 863, 864
737, 864, 865
738, 865, 866
739, 866, 867
740, 867, 868
741, 868, 869
742, 869, 870
743, 870, 871
744, 871, 872
745, 872, 873
746, 873, 874
747, 874, 875
748, 875, 876
749, 876, 877
750, 877, 878
751, 878, 879
752, 879, 880
753, 880, 881
754, 881, 882
755, 882, 883
756, 883, 884
757, 884, 885
758, 885, 886
759, 886,  13
760,  15, 887
761, 887, 888
762, 888, 889
763, 889, 890
764, 890, 891
765, 891, 892
766, 892, 893
767, 893, 894
768, 894, 895
769, 895, 896
770, 896, 897
771, 897, 898
772, 898, 899
773, 899, 900
774, 900, 901
775, 901, 902
776, 902, 903
777, 903, 904
778, 904, 905
779, 905, 906
780, 906, 907
781, 907, 908
782, 908, 909
783, 909, 910
784, 910, 911
785, 911, 912
786, 912, 913
787, 913, 914
788, 914, 915
789, 915, 916
790, 916, 917
791, 917, 918
792, 918,  14
793,  16, 919
794, 919, 920
795, 920, 921
796, 921, 922
797, 922, 923
798, 923, 924
799, 924, 925
800, 925, 926
801, 926, 927
802, 927, 928
803, 928, 929
804, 929, 930
805, 930, 931
806, 931, 932
807, 932, 933
808, 933, 934
809, 934, 935
810, 935, 936
811, 936, 937
812, 937, 938
813, 938, 939
814, 939, 940
815, 940, 941
816, 941, 942
817, 942, 943
818, 943, 944
819, 944, 945
820, 945, 946
821, 946, 947
822, 947, 948
823, 948, 949
824, 949, 950
825, 950,  15
826,   17,  951
827,  951,  952
828,  952,  953
829,  953,  954
830,  954,  955
831,  955,  956
832,  956,  957
833,  957,  958
834,  958,  959
835,  959,  960
836,  960,  961
837,  961,  962
838,  962,  963
839,  963,  964
840,  964,  965
841,  965,  966
842,  966,  967
843,  967,  968
844,  968,  969
845,  969,  970
846,  970,  971
847,  971,  972
848,  972,  973
849,  973,  974
850,  974,  975
851,  975,  976
852,  976,  977
853,  977,  978
854,  978,  979
855,  979,  980
856,  980,  981
857,  981,  982
858,  982,  983
859,  983,  984
860,  984,  985
861,  985,  986
862,  986,  987
863,  987,  988
864,  988,  989
865,  989,  990
866,  990,  991
867,  991,  992
868,  992,  993
869,  993,  994
870,  994,  995
871,  995,  996
872,  996,  997
873,  997,  998
874,  998,  999
875,  999, 1000
876, 1000, 1001
877, 1001, 1002
878, 1002, 1003
879, 1003, 1004
880, 1004, 1005
881, 1005, 1006
882, 1006, 1007
883, 1007, 1008
884, 1008, 1009
885, 1009, 1010
886, 1010, 1011
887, 1011, 1012
888, 1012, 1013
889, 1013, 1014
890, 1014, 1015
891, 1015,   16
892,   18, 1016
893, 1016, 1017
894, 1017, 1018
895, 1018, 1019
896, 1019, 1020
897, 1020, 1021
898, 1021, 1022
899, 1022, 1023
900, 1023, 1024
901, 1024, 1025
902, 1025, 1026
903, 1026, 1027
904, 1027, 1028
905, 1028, 1029
906, 1029, 1030
907, 1030, 1031
908, 1031, 1032
909, 1032, 1033
910, 1033, 1034
911, 1034, 1035
912, 1035, 1036
913, 1036, 1037
914, 1037, 1038
915, 1038, 1039
916, 1039, 1040
917, 1040, 1041
918, 1041, 1042
919, 1042, 1043
920, 1043, 1044
921, 1044, 1045
922, 1045, 1046
923, 1046, 1047
924, 1047, 1048
925, 1048, 1049
926, 1049, 1050
927, 1050, 1051
928, 1051, 1052
929, 1052, 1053
930, 1053, 1054
931, 1054, 1055
932, 1055, 1056
933, 1056, 1057
934, 1057, 1058
935, 1058, 1059
936, 1059, 1060
937, 1060, 1061
938, 1061, 1062
939, 1062, 1063
940, 1063, 1064
941, 1064, 1065
942, 1065, 1066
943, 1066, 1067
944, 1067, 1068
945, 1068, 1069
946, 1069, 1070
947, 1070, 1071
948, 1071, 1072
949, 1072, 1073
950, 1073, 1074
951, 1074, 1075
952, 1075, 1076
953, 1076, 1077
954, 1077, 1078
955, 1078, 1079
956, 1079, 1080
957, 1080,   17
 958,   19, 1081
 959, 1081, 1082
 960, 1082, 1083
 961, 1083, 1084
 962, 1084, 1085
 963, 1085, 1086
 964, 1086, 1087
 965, 1087, 1088
 966, 1088, 1089
 967, 1089, 1090
 968, 1090, 1091
 969, 1091, 1092
 970, 1092, 1093
 971, 1093, 1094
 972, 1094, 1095
 973, 1095, 1096
 974, 1096, 1097
 975, 1097, 1098
 976, 1098, 1099
 977, 1099, 1100
 978, 1100, 1101
 979, 1101, 1102
 980, 1102, 1103
 981, 1103, 1104
 982, 1104, 1105
 983, 1105, 1106
 984, 1106, 1107
 985, 1107, 1108
 986, 1108, 1109
 987, 1109, 1110
 988, 1110, 1111
 989, 1111, 1112
 990, 1112, 1113
 991, 1113, 1114
 992, 1114, 1115
 993, 1115, 1116
 994, 1116, 1117
 995, 1117, 1118
 996, 1118, 1119
 997, 1119, 1120
 998, 1120, 1121
 999, 1121, 1122
1000, 1122, 1123
1001, 1123, 1124
1002, 1124, 1125
1003, 1125, 1126
1004, 1126, 1127
1005, 1127, 1128
1006, 1128, 1129
1007, 1129, 1130
1008, 1130, 1131
1009, 1131, 1132
1010, 1132, 1133
1011, 1133, 1134
1012, 1134, 1135
1013, 1135, 1136
1014, 1136, 1137
1015, 1137, 1138
1016, 1138, 1139
1017, 1139, 1140
1018, 1140, 1141
1019, 1141, 1142
1020, 1142, 1143
1021, 1143, 1144
1022, 1144, 1145
1023, 1145,   18
1024,   20, 1146
1025, 1146, 1147
1026, 1147, 1148
1027, 1148, 1149
1028, 1149, 1150
1029, 1150, 1151
1030, 1151, 1152
1031, 1152, 1153
1032, 1153, 1154
1033, 1154, 1155
1034, 1155, 1156
1035, 1156, 1157
1036, 1157, 1158
1037, 1158, 1159
1038, 1159, 1160
1039, 1160, 1161
1040, 1161, 1162
1041, 1162, 1163
1042, 1163, 1164
1043, 1164, 1165
1044, 1165, 1166
1045, 1166, 1167
1046, 1167, 1168
1047, 1168, 1169
1048, 1169, 1170
1049, 1170, 1171
1050, 1171, 1172
1051, 1172, 1173
1052, 1173, 1174
1053, 1174, 1175
1054, 1175, 1176
1055, 1176, 1177
1056, 1177, 1178
1057, 1178, 1179
1058, 1179, 1180
1059, 1180, 1181
1060, 1181, 1182
1061, 1182, 1183
1062, 1183, 1184
1063, 1184, 1185
1064, 1185, 1186
1065, 1186, 1187
1066, 1187, 1188
1067, 1188, 1189
1068, 1189, 1190
1069, 1190, 1191
1070, 1191, 1192
1071, 1192, 1193
1072, 1193, 1194
1073, 1194, 1195
1074, 1195, 1196
1075, 1196, 1197
1076, 1197, 1198
1077, 1198, 1199
1078, 1199, 1200
1079, 1200, 1201
1080, 1201, 1202
1081, 1202, 1203
1082, 1203, 1204
1083, 1204, 1205
1084, 1205, 1206
1085, 1206, 1207
1086, 1207, 1208
1087, 1208, 1209
1088, 1209, 1210
1089, 1210,   19
1090,   21, 1211
1091, 1211, 1212
1092, 1212, 1213
1093, 1213, 1214
1094, 1214, 1215
1095, 1215, 1216
1096, 1216, 1217
1097, 1217, 1218
1098, 1218, 1219
1099, 1219, 1220
1100, 1220, 1221
1101, 1221, 1222
1102, 1222, 1223
1103, 1223, 1224
1104, 1224, 1225
1105, 1225, 1226
1106, 1226, 1227
1107, 1227, 1228
1108, 1228, 1229
1109, 1229, 1230
1110, 1230, 1231
1111, 1231, 1232
1112, 1232, 1233
1113, 1233, 1234
1114, 1234, 1235
1115, 1235, 1236
1116, 1236, 1237
1117, 1237, 1238
1118, 1238, 1239
1119, 1239, 1240
1120, 1240, 1241
1121, 1241, 1242
1122, 1242, 1243
1123, 1243, 1244
1124, 1244, 1245
1125, 1245, 1246
1126, 1246, 1247
1127, 1247, 1248
1128, 1248, 1249
1129, 1249, 1250
1130, 1250, 1251
1131, 1251, 1252
1132, 1252, 1253
1133, 1253, 1254
1134, 1254, 1255
1135, 1255, 1256
1136, 1256, 1257
1137, 1257, 1258
1138, 1258, 1259
1139, 1259, 1260
1140, 1260, 1261
1141, 1261, 1262
1142, 1262, 1263
1143, 1263, 1264
1144, 1264, 1265
1145, 1265, 1266
1146, 1266, 1267
1147, 1267, 1268
1148, 1268, 1269
1149, 1269, 1270
1150, 1270, 1271
1151, 1271, 1272
1152, 1272, 1273
1153, 1273, 1274
1154, 1274, 1275
1155, 1275,   20
1156,   22, 1276
1157, 1276, 1277
1158, 1277, 1278
1159, 1278, 1279
1160, 1279, 1280
1161, 1280, 1281
1162, 1281, 1282
1163, 1282, 1283
1164, 1283, 1284
1165, 1284, 1285
1166, 1285, 1286
1167, 1286, 1287
1168, 1287, 1288
1169, 1288, 1289
1170, 1289, 1290
1171, 1290, 1291
1172, 1291, 1292
1173, 1292, 1293
1174, 1293, 1294
1175, 1294, 1295
1176, 1295, 1296
1177, 1296, 1297
1178, 1297, 1298
1179, 1298, 1299
1180, 1299, 1300
1181, 1300, 1301
1182, 1301, 1302
1183, 1302, 1303
1184, 1303, 1304
1185, 1304, 1305
1186, 1305, 1306
1187, 1306, 1307
1188, 1307, 1308
1189, 1308, 1309
1190, 1309, 1310
1191, 1310, 1311
1192, 1311, 1312
1193, 1312, 1313
1194, 1313, 1314
1195, 1314, 1315
1196, 1315, 1316
1197, 1316, 1317
1198, 1317, 1318
1199, 1318, 1319
1200, 1319, 1320
1201, 1320, 1321
1202, 1321, 1322
1203, 1322, 1323
1204, 1323, 1324
1205, 1324, 1325
1206, 1325, 1326
1207, 1326, 1327
1208, 1327, 1328
1209, 1328, 1329
1210, 1329, 1330
1211, 1330, 1331
1212, 1331, 1332
1213, 1332, 1333
1214, 1333, 1334
1215, 1334, 1335
1216, 1335, 1336
1217, 1336, 1337
1218, 1337, 1338
1219, 1338, 1339
1220, 1339, 1340
1221, 1340,   21
1222,   23, 1341
1223, 1341, 1342
1224, 1342, 1343
1225, 1343, 1344
1226, 1344, 1345
1227, 1345, 1346
1228, 1346, 1347
1229, 1347, 1348
1230, 1348, 1349
1231, 1349, 1350
1232, 1350, 1351
1233, 1351, 1352
1234, 1352, 1353
1235, 1353, 1354
1236, 1354, 1355
1237, 1355, 1356
1238, 1356, 1357
1239, 1357, 1358
1240, 1358, 1359
1241, 1359, 1360
1242, 1360, 1361
1243, 1361, 1362
1244, 1362, 1363
1245, 1363, 1364
1246, 1364, 1365
1247, 1365, 1366
1248, 1366, 1367
1249, 1367, 1368
1250, 1368, 1369
1251, 1369, 1370
1252, 1370, 1371
1253, 1371, 1372
1254, 1372, 1373
1255, 1373, 1374
1256, 1374, 1375
1257, 1375, 1376
1258, 1376, 1377
1259, 1377, 1378
1260, 1378, 1379
1261, 1379, 1380
1262, 1380, 1381
1263, 1381, 1382
1264, 1382, 1383
1265, 1383, 1384
1266, 1384, 1385
1267, 1385, 1386
1268, 1386, 1387
1269, 1387, 1388
1270, 1388, 1389
1271, 1389, 1390
1272, 1390, 1391
1273, 1391, 1392
1274, 1392, 1393
1275, 1393, 1394
1276, 1394, 1395
1277, 1395, 1396
1278, 1396, 1397
1279, 1397, 1398
1280, 1398, 1399
1281, 1399, 1400
1282, 1400, 1401
1283, 1401, 1402
1284, 1402, 1403
1285, 1403, 1404
1286, 1404, 1405
1287, 1405,   22
1288,   24, 1406
1289, 1406, 1407
1290, 1407, 1408
1291, 1408, 1409
1292, 1409, 1410
1293, 1410, 1411
1294, 1411, 1412
1295, 1412, 1413
1296, 1413, 1414
1297, 1414, 1415
1298, 1415, 1416
1299, 1416, 1417
1300, 1417, 1418
1301, 1418, 1419
1302, 1419, 1420
1303, 1420, 1421
1304, 1421, 1422
1305, 1422, 1423
1306, 1423, 1424
1307, 1424, 1425
1308, 1425, 1426
1309, 1426, 1427
1310, 1427, 1428
1311, 1428, 1429
1312, 1429, 1430
1313, 1430, 1431
1314, 1431, 1432
1315, 1432, 1433
1316, 1433, 1434
1317, 1434, 1435
1318, 1435, 1436
1319, 1436, 1437
1320, 1437, 1438
1321, 1438, 1439
1322, 1439, 1440
1323, 1440, 1441
1324, 1441, 1442
1325, 1442, 1443
1326, 1443, 1444
1327, 1444, 1445
1328, 1445, 1446
1329, 1446, 1447
1330, 1447, 1448
1331, 1448, 1449
1332, 1449, 1450
1333, 1450, 1451
1334, 1451, 1452
1335, 1452, 1453
1336, 1453, 1454
1337, 1454, 1455
1338, 1455, 1456
1339, 1456, 1457
1340, 1457, 1458
1341, 1458, 1459
1342, 1459, 1460
1343, 1460, 1461
1344, 1461, 1462
1345, 1462, 1463
1346, 1463, 1464
1347, 1464, 1465
1348, 1465, 1466
1349, 1466, 1467
1350, 1467, 1468
1351, 1468, 1469
1352, 1469, 1470
1353, 1470,   23
1354,   25, 1471
1355, 1471, 1472
1356, 1472, 1473
1357, 1473, 1474
1358, 1474, 1475
1359, 1475, 1476
1360, 1476, 1477
1361, 1477, 1478
1362, 1478, 1479
1363, 1479, 1480
1364, 1480, 1481
1365, 1481, 1482
1366, 1482, 1483
1367, 1483, 1484
1368, 1484, 1485
1369, 1485, 1486
1370, 1486, 1487
1371, 1487, 1488
1372, 1488, 1489
1373, 1489, 1490
1374, 1490, 1491
1375, 1491, 1492
1376, 1492, 1493
1377, 1493, 1494
1378, 1494, 1495
1379, 1495, 1496
1380, 1496, 1497
1381, 1497, 1498
1382, 1498, 1499
1383, 1499, 1500
1384, 1500, 1501
1385, 1501, 1502
1386, 1502, 1503
1387, 1503, 1504
1388, 1504, 1505
1389, 1505, 1506
1390, 1506, 1507
1391, 1507, 1508
1392, 1508, 1509
1393, 1509, 1510
1394, 1510, 1511
1395, 1511, 1512
1396, 1512, 1513
1397, 1513, 1514
1398, 1514, 1515
1399, 1515, 1516
1400, 1516, 1517
1401, 1517, 1518
1402, 1518, 1519
1403, 1519, 1520
1404, 1520, 1521
1405, 1521, 1522
1406, 1522, 1523
1407, 1523, 1524
1408, 1524, 1525
1409, 1525, 1526
1410, 1526, 1527
1411, 1527, 1528
1412, 1528, 1529
1413, 1529, 1530
1414, 1530, 1531
1415, 1531, 1532
1416, 1532, 1533
1417, 1533, 1534
1418, 1534, 1535
1419, 1535,   24
1420,   26, 1536
1421, 1536, 1537
1422, 1537, 1538
1423, 1538, 1539
1424, 1539, 1540
1425, 1540, 1541
1426, 1541, 1542
1427, 1542, 1543
1428, 1543, 1544
1429, 1544, 1545
1430, 1545, 1546
1431, 1546, 1547
1432, 1547, 1548
1433, 1548, 1549
1434, 1549, 1550
1435, 1550, 1551
1436, 1551, 1552
1437, 1552, 1553
1438, 1553, 1554
1439, 1554, 1555
1440, 1555, 1556
1441, 1556, 1557
1442, 1557, 1558
1443, 1558, 1559
1444, 1559, 1560
1445, 1560, 1561
1446, 1561, 1562
1447, 1562, 1563
1448, 1563, 1564
1449, 1564, 1565
1450, 1565, 1566
1451, 1566, 1567
1452, 1567, 1568
1453, 1568, 1569
1454, 1569, 1570
1455, 1570, 1571
1456, 1571, 1572
1457, 1572, 1573
1458, 1573, 1574
1459, 1574, 1575
1460, 1575, 1576
1461, 1576, 1577
1462, 1577, 1578
1463, 1578, 1579
1464, 1579, 1580
1465, 1580, 1581
1466, 1581, 1582
1467, 1582, 1583
1468, 1583, 1584
1469, 1584, 1585
1470, 1585, 1586
1471, 1586, 1587
1472, 1587, 1588
1473, 1588, 1589
1474, 1589, 1590
1475, 1590, 1591
1476, 1591, 1592
1477, 1592, 1593
1478, 1593, 1594
1479, 1594, 1595
1480, 1595, 1596
1481, 1596, 1597
1482, 1597, 1598
1483, 1598, 1599
1484, 1599, 1600
1485, 1600,   25
1486,   27, 1601
1487, 1601, 1602
1488, 1602, 1603
1489, 1603, 1604
1490, 1604, 1605
1491, 1605, 1606
1492, 1606, 1607
1493, 1607, 1608
1494, 1608, 1609
1495, 1609, 1610
1496, 1610, 1611
1497, 1611, 1612
1498, 1612, 1613
1499, 1613, 1614
1500, 1614, 1615
1501, 1615, 1616
1502, 1616, 1617
1503, 1617, 1618
1504, 1618, 1619
1505, 1619, 1620
1506, 1620, 1621
1507, 1621, 1622
1508, 1622, 1623
1509, 1623, 1624
1510, 1624, 1625
1511, 1625, 1626
1512, 1626, 1627
1513, 1627, 1628
1514, 1628, 1629
1515, 1629, 1630
1516, 1630, 1631
1517, 1631, 1632
1518, 1632,   26
1519,   27, 1633
1520, 1633, 1634
1521, 1634, 1635
1522, 1635, 1636
1523, 1636, 1637
1524, 1637, 1638
1525, 1638, 1639
1526, 1639, 1640
1527, 1640, 1641
1528, 1641, 1642
1529, 1642, 1643
1530, 1643, 1644
1531, 1644, 1645
1532, 1645, 1646
1533, 1646, 1647
1534, 1647, 1648
1535, 1648, 1649
1536, 1649, 1650
1537, 1650, 1651
1538, 1651, 1652
1539, 1652, 1653
1540, 1653, 1654
1541, 1654, 1655
1542, 1655, 1656
1543, 1656, 1657
1544, 1657, 1658
1545, 1658, 1659
1546, 1659, 1660
1547, 1660, 1661
1548, 1661, 1662
1549, 1662, 1663
1550, 1663, 1664
1551, 1664, 1665
1552, 1665, 1666
1553, 1666, 1667
1554, 1667, 1668
1555, 1668, 1669
1556, 1669, 1670
1557, 1670, 1671
1558, 1671,   28
1559,   29, 1672
1560, 1672, 1673
1561, 1673, 1674
1562, 1674, 1675
1563, 1675, 1676
1564, 1676, 1677
1565, 1677, 1678
1566, 1678, 1679
1567, 1679, 1680
1568, 1680, 1681
1569, 1681, 1682
1570, 1682, 1683
1571, 1683, 1684
1572, 1684, 1685
1573, 1685, 1686
1574, 1686, 1687
1575, 1687, 1688
1576, 1688, 1689
1577, 1689, 1690
1578, 1690, 1691
1579, 1691, 1692
1580, 1692, 1693
1581, 1693, 1694
1582, 1694, 1695
1583, 1695, 1696
1584, 1696, 1697
1585, 1697, 1698
1586, 1698, 1699
1587, 1699, 1700
1588, 1700, 1701
1589, 1701, 1702
1590, 1702, 1703
1591, 1703, 1704
1592, 1704, 1705
1593, 1705, 1706
1594, 1706, 1707
1595, 1707, 1708
1596, 1708, 1709
1597, 1709, 1710
1598, 1710, 1711
1599, 1711, 1712
1600, 1712, 1713
1601, 1713, 1714
1602, 1714, 1715
1603, 1715, 1716
1604, 1716, 1717
1605, 1717, 1718
1606, 1718, 1719
1607, 1719, 1720
1608, 1720, 1721
1609, 1721, 1722
1610, 1722, 1723
1611, 1723, 1724
1612, 1724,    5
1613,   30, 1725
1614, 1725, 1726
1615, 1726, 1727
1616, 1727, 1728
1617, 1728, 1729
1618, 1729, 1730
1619, 1730, 1731
1620, 1731, 1732
1621, 1732, 1733
1622, 1733, 1734
1623, 1734, 1735
1624, 1735, 1736
1625, 1736, 1737
1626, 1737, 1738
1627, 1738, 1739
1628, 1739, 1740
1629, 1740, 1741
1630, 1741, 1742
1631, 1742, 1743
1632, 1743, 1744
1633, 1744, 1745
1634, 1745, 1746
1635, 1746, 1747
1636, 1747, 1748
1637, 1748, 1749
1638, 1749, 1750
1639, 1750, 1751
1640, 1751, 1752
1641, 1752, 1753
1642, 1753, 1754
1643, 1754, 1755
1644, 1755, 1756
1645, 1756, 1757
1646, 1757, 1758
1647, 1758, 1759
1648, 1759, 1760
1649, 1760, 1761
1650, 1761, 1762
1651, 1762, 1763
1652, 1763, 1764
1653, 1764, 1765
1654, 1765, 1766
1655, 1766, 1767
1656, 1767, 1768
1657, 1768, 1769
1658, 1769, 1770
1659, 1770, 1771
1660, 1771, 1772
1661, 1772, 1773
1662, 1773, 1774
1663, 1774, 1775
1664, 1775, 1776
1665, 1776, 1777
1666, 1777, 1778
1667, 1778, 1779
1668, 1779, 1780
1669, 1780, 1781
1670, 1781, 1782
1671, 1782, 1783
1672, 1783, 1784
1673, 1784, 1785
1674, 1785, 1786
1675, 1786, 1787
1676, 1787, 1788
1677, 1788, 1789
1678, 1789, 1790
1679, 1790, 1791
1680, 1791, 1792
1681, 1792, 1793
1682, 1793, 1794
1683, 1794, 1795
1684, 1795, 1796
1685, 1796, 1797
1686, 1797, 1798
1687, 1798, 1799
1688, 1799, 1800
1689, 1800, 1801
1690, 1801, 1802
1691, 1802, 1803
1692, 1803,   29
1693,   31, 1804
1694, 1804, 1805
1695, 1805, 1806
1696, 1806, 1807
1697, 1807, 1808
1698, 1808, 1809
1699, 1809, 1810
1700, 1810, 1811
1701, 1811, 1812
1702, 1812, 1813
1703, 1813, 1814
1704, 1814, 1815
1705, 1815, 1816
1706, 1816, 1817
1707, 1817, 1818
1708, 1818, 1819
1709, 1819, 1820
1710, 1820, 1821
1711, 1821, 1822
1712, 1822, 1823
1713, 1823, 1824
1714, 1824, 1825
1715, 1825, 1826
1716, 1826, 1827
1717, 1827, 1828
1718, 1828, 1829
1719, 1829, 1830
1720, 1830, 1831
1721, 1831, 1832
1722, 1832, 1833
1723, 1833, 1834
1724, 1834, 1835
1725, 1835, 1836
1726, 1836, 1837
1727, 1837, 1838
1728, 1838, 1839
1729, 1839, 1840
1730, 1840, 1841
1731, 1841, 1842
1732, 1842, 1843
1733, 1843, 1844
1734, 1844, 1845
1735, 1845, 1846
1736, 1846, 1847
1737, 1847, 1848
1738, 1848, 1849
1739, 1849, 1850
1740, 1850, 1851
1741, 1851, 1852
1742, 1852, 1853
1743, 1853, 1854
1744, 1854, 1855
1745, 1855, 1856
1746, 1856,   30
1747,   32, 1857
1748, 1857, 1858
1749, 1858, 1859
1750, 1859, 1860
1751, 1860, 1861
1752, 1861, 1862
1753, 1862, 1863
1754, 1863, 1864
1755, 1864, 1865
1756, 1865, 1866
1757, 1866, 1867
1758, 1867, 1868
1759, 1868, 1869
1760, 1869, 1870
1761, 1870, 1871
1762, 1871, 1872
1763, 1872, 1873
1764, 1873, 1874
1765, 1874, 1875
1766, 1875, 1876
1767, 1876, 1877
1768, 1877, 1878
1769, 1878, 1879
1770, 1879, 1880
1771, 1880, 1881
1772, 1881,   31
1773,   33, 1882
1774, 1882, 1883
1775, 1883, 1884
1776, 1884, 1885
1777, 1885, 1886
1778, 1886, 1887
1779, 1887, 1888
1780, 1888, 1889
1781, 1889, 1890
1782, 1890, 1891
1783, 1891, 1892
1784, 1892, 1893
1785, 1893, 1894
1786, 1894, 1895
1787, 1895, 1896
1788, 1896, 1897
1789, 1897, 1898
1790, 1898, 1899
1791, 1899, 1900
1792, 1900, 1901
1793, 1901, 1902
1794, 1902, 1903
1795, 1903, 1904
1796, 1904, 1905
1797, 1905, 1906
1798, 1906, 1907
1799, 1907, 1908
1800, 1908, 1909
1801, 1909, 1910
1802, 1910, 1911
1803, 1911, 1912
1804, 1912, 1913
1805, 1913, 1914
1806, 1914, 1915
1807, 1915, 1916
1808, 1916, 1917
1809, 1917, 1918
1810, 1918, 1919
1811, 1919, 1920
1812, 1920,   32
1813,    9, 1921
1814, 1921, 1922
1815, 1922, 1923
1816, 1923, 1924
1817, 1924, 1925
1818, 1925, 1926
1819, 1926, 1927
1820, 1927, 1928
1821, 1928, 1929
1822, 1929, 1930
1823, 1930, 1931
1824, 1931, 1932
1825, 1932, 1933
1826, 1933, 1934
1827, 1934, 1935
1828, 1935, 1936
1829, 1936, 1937
1830, 1937, 1938
1831, 1938, 1939
1832, 1939, 1940
1833, 1940, 1941
1834, 1941, 1942
1835, 1942, 1943
1836, 1943, 1944
1837, 1944, 1945
1838, 1945, 1946
1839, 1946, 1947
1840, 1947, 1948
1841, 1948, 1949
1842, 1949, 1950
1843, 1950, 1951
1844, 1951, 1952
1845, 1952, 1953
1846, 1953, 1954
1847, 1954, 1955
1848, 1955, 1956
1849, 1956, 1957
1850, 1957, 1958
1851, 1958, 1959
1852, 1959,   34
1853,   35, 1960
1854, 1960, 1961
1855, 1961, 1962
1856, 1962, 1963
1857, 1963, 1964
1858, 1964, 1965
1859, 1965, 1966
1860, 1966, 1967
1861, 1967, 1968
1862, 1968, 1969
1863, 1969, 1970
1864, 1970, 1971
1865, 1971, 1972
1866, 1972, 1973
1867, 1973, 1974
1868, 1974, 1975
1869, 1975, 1976
1870, 1976, 1977
1871, 1977, 1978
1872, 1978, 1979
1873, 1979, 1980
1874, 1980, 1981
1875, 1981, 1982
1876, 1982, 1983
1877, 1983, 1984
1878, 1984,    9
1879,   36, 1985
1880, 1985, 1986
1881, 1986, 1987
1882, 1987, 1988
1883, 1988, 1989
1884, 1989, 1990
1885, 1990, 1991
1886, 1991, 1992
1887, 1992, 1993
1888, 1993, 1994
1889, 1994, 1995
1890, 1995, 1996
1891, 1996, 1997
1892, 1997, 1998
1893, 1998, 1999
1894, 1999, 2000
1895, 2000, 2001
1896, 2001, 2002
1897, 2002, 2003
1898, 2003, 2004
1899, 2004, 2005
1900, 2005, 2006
1901, 2006, 2007
1902, 2007, 2008
1903, 2008, 2009
1904, 2009, 2010
1905, 2010, 2011
1906, 2011, 2012
1907, 2012, 2013
1908, 2013, 2014
1909, 2014, 2015
1910, 2015, 2016
1911, 2016, 2017
1912, 2017, 2018
1913, 2018, 2019
1914, 2019, 2020
1915, 2020, 2021
1916, 2021, 2022
1917, 2022, 2023
1918, 2023, 2024
1919, 2024, 2025
1920, 2025, 2026
1921, 2026, 2027
1922, 2027, 2028
1923, 2028, 2029
1924, 2029, 2030
1925, 2030, 2031
1926, 2031, 2032
1927, 2032, 2033
1928, 2033, 2034
1929, 2034, 2035
1930, 2035, 2036
1931, 2036, 2037
1932, 2037,   35
1933,   37, 2038
1934, 2038, 2039
1935, 2039, 2040
1936, 2040, 2041
1937, 2041, 2042
1938, 2042, 2043
1939, 2043, 2044
1940, 2044, 2045
1941, 2045, 2046
1942, 2046, 2047
1943, 2047, 2048
1944, 2048, 2049
1945, 2049, 2050
1946, 2050, 2051
1947, 2051, 2052
1948, 2052, 2053
1949, 2053, 2054
1950, 2054, 2055
1951, 2055, 2056
1952, 2056, 2057
1953, 2057, 2058
1954, 2058, 2059
1955, 2059, 2060
1956, 2060, 2061
1957, 2061, 2062
1958, 2062, 2063
1959, 2063, 2064
1960, 2064, 2065
1961, 2065, 2066
1962, 2066, 2067
1963, 2067, 2068
1964, 2068, 2069
1965, 2069, 2070
1966, 2070, 2071
1967, 2071, 2072
1968, 2072, 2073
1969, 2073, 2074
1970, 2074, 2075
1971, 2075, 2076
1972, 2076, 2077
1973, 2077, 2078
1974, 2078, 2079
1975, 2079, 2080
1976, 2080, 2081
1977, 2081, 2082
1978, 2082, 2083
1979, 2083, 2084
1980, 2084, 2085
1981, 2085, 2086
1982, 2086, 2087
1983, 2087, 2088
1984, 2088, 2089
1985, 2089, 2090
1986, 2090, 2091
1987, 2091, 2092
1988, 2092, 2093
1989, 2093, 2094
1990, 2094, 2095
1991, 2095, 2096
1992, 2096, 2097
1993, 2097, 2098
1994, 2098, 2099
1995, 2099, 2100
1996, 2100, 2101
1997, 2101, 2102
1998, 2102, 2103
1999, 2103, 2104
2000, 2104, 2105
2001, 2105, 2106
2002, 2106, 2107
2003, 2107, 2108
2004, 2108, 2109
2005, 2109, 2110
2006, 2110, 2111
2007, 2111, 2112
2008, 2112, 2113
2009, 2113, 2114
2010, 2114, 2115
2011, 2115, 2116
2012, 2116,   36
2013,   38, 2117
2014, 2117, 2118
2015, 2118, 2119
2016, 2119, 2120
2017, 2120, 2121
2018, 2121, 2122
2019, 2122, 2123
2020, 2123, 2124
2021, 2124, 2125
2022, 2125, 2126
2023, 2126, 2127
2024, 2127, 2128
2025, 2128, 2129
2026, 2129, 2130
2027, 2130, 2131
2028, 2131, 2132
2029, 2132, 2133
2030, 2133, 2134
2031, 2134, 2135
2032, 2135, 2136
2033, 2136, 2137
2034, 2137, 2138
2035, 2138, 2139
2036, 2139, 2140
2037, 2140, 2141
2038, 2141, 2142
2039, 2142, 2143
2040, 2143, 2144
2041, 2144, 2145
2042, 2145, 2146
2043, 2146, 2147
2044, 2147, 2148
2045, 2148, 2149
2046, 2149, 2150
2047, 2150, 2151
2048, 2151, 2152
2049, 2152, 2153
2050, 2153, 2154
2051, 2154, 2155
2052, 2155, 2156
2053, 2156, 2157
2054, 2157, 2158
2055, 2158, 2159
2056, 2159, 2160
2057, 2160, 2161
2058, 2161, 2162
2059, 2162, 2163
2060, 2163, 2164
2061, 2164, 2165
2062, 2165, 2166
2063, 2166, 2167
2064, 2167, 2168
2065, 2168, 2169
2066, 2169,   37
2067,   39, 2170
2068, 2170, 2171
2069, 2171, 2172
2070, 2172, 2173
2071, 2173, 2174
2072, 2174, 2175
2073, 2175, 2176
2074, 2176, 2177
2075, 2177, 2178
2076, 2178, 2179
2077, 2179, 2180
2078, 2180, 2181
2079, 2181, 2182
2080, 2182, 2183
2081, 2183, 2184
2082, 2184, 2185
2083, 2185, 2186
2084, 2186, 2187
2085, 2187, 2188
2086, 2188, 2189
2087, 2189, 2190
2088, 2190, 2191
2089, 2191, 2192
2090, 2192, 2193
2091, 2193, 2194
2092, 2194,   38
2093,   40, 2195
2094, 2195, 2196
2095, 2196, 2197
2096, 2197, 2198
2097, 2198, 2199
2098, 2199, 2200
2099, 2200, 2201
2100, 2201, 2202
2101, 2202, 2203
2102, 2203, 2204
2103, 2204, 2205
2104, 2205, 2206
2105, 2206, 2207
2106, 2207, 2208
2107, 2208, 2209
2108, 2209, 2210
2109, 2210, 2211
2110, 2211, 2212
2111, 2212, 2213
2112, 2213, 2214
2113, 2214, 2215
2114, 2215, 2216
2115, 2216, 2217
2116, 2217, 2218
2117, 2218, 2219
2118, 2219, 2220
2119, 2220, 2221
2120, 2221, 2222
2121, 2222, 2223
2122, 2223, 2224
2123, 2224, 2225
2124, 2225, 2226
2125, 2226, 2227
2126, 2227, 2228
2127, 2228, 2229
2128, 2229, 2230
2129, 2230, 2231
2130, 2231, 2232
2131, 2232, 2233
2132, 2233,   39
2133,   15, 2234
2134, 2234, 2235
2135, 2235, 2236
2136, 2236, 2237
2137, 2237, 2238
2138, 2238, 2239
2139, 2239, 2240
2140, 2240, 2241
2141, 2241, 2242
2142, 2242, 2243
2143, 2243, 2244
2144, 2244, 2245
2145, 2245, 2246
2146, 2246, 2247
2147, 2247, 2248
2148, 2248, 2249
2149, 2249, 2250
2150, 2250, 2251
2151, 2251, 2252
2152, 2252, 2253
2153, 2253, 2254
2154, 2254, 2255
2155, 2255, 2256
2156, 2256, 2257
2157, 2257, 2258
2158, 2258, 2259
2159, 2259, 2260
2160, 2260, 2261
2161, 2261, 2262
2162, 2262, 2263
2163, 2263, 2264
2164, 2264, 2265
2165, 2265, 2266
2166, 2266, 2267
2167, 2267, 2268
2168, 2268, 2269
2169, 2269, 2270
2170, 2270, 2271
2171, 2271, 2272
2172, 2272,   41
2173,   42, 2273
2174, 2273, 2274
2175, 2274, 2275
2176, 2275, 2276
2177, 2276, 2277
2178, 2277, 2278
2179, 2278, 2279
2180, 2279, 2280
2181, 2280, 2281
2182, 2281, 2282
2183, 2282, 2283
2184, 2283, 2284
2185, 2284, 2285
2186, 2285, 2286
2187, 2286, 2287
2188, 2287, 2288
2189, 2288, 2289
2190, 2289, 2290
2191, 2290, 2291
2192, 2291, 2292
2193, 2292, 2293
2194, 2293, 2294
2195, 2294, 2295
2196, 2295, 2296
2197, 2296, 2297
2198, 2297,   15
2199,   43, 2298
2200, 2298, 2299
2201, 2299, 2300
2202, 2300, 2301
2203, 2301, 2302
2204, 2302, 2303
2205, 2303, 2304
2206, 2304, 2305
2207, 2305, 2306
2208, 2306, 2307
2209, 2307, 2308
2210, 2308, 2309
2211, 2309, 2310
2212, 2310, 2311
2213, 2311, 2312
2214, 2312, 2313
2215, 2313, 2314
2216, 2314, 2315
2217, 2315, 2316
2218, 2316, 2317
2219, 2317, 2318
2220, 2318, 2319
2221, 2319, 2320
2222, 2320, 2321
2223, 2321, 2322
2224, 2322, 2323
2225, 2323, 2324
2226, 2324, 2325
2227, 2325, 2326
2228, 2326, 2327
2229, 2327, 2328
2230, 2328, 2329
2231, 2329, 2330
2232, 2330, 2331
2233, 2331, 2332
2234, 2332, 2333
2235, 2333, 2334
2236, 2334, 2335
2237, 2335, 2336
2238, 2336, 2337
2239, 2337, 2338
2240, 2338, 2339
2241, 2339, 2340
2242, 2340, 2341
2243, 2341, 2342
2244, 2342, 2343
2245, 2343, 2344
2246, 2344, 2345
2247, 2345, 2346
2248, 2346, 2347
2249, 2347, 2348
2250, 2348, 2349
2251, 2349, 2350
2252, 2350,   42
2253,   44, 2351
2254, 2351, 2352
2255, 2352, 2353
2256, 2353, 2354
2257, 2354, 2355
2258, 2355, 2356
2259, 2356, 2357
2260, 2357, 2358
2261, 2358, 2359
2262, 2359, 2360
2263, 2360, 2361
2264, 2361, 2362
2265, 2362, 2363
2266, 2363, 2364
2267, 2364, 2365
2268, 2365, 2366
2269, 2366, 2367
2270, 2367, 2368
2271, 2368, 2369
2272, 2369, 2370
2273, 2370, 2371
2274, 2371, 2372
2275, 2372, 2373
2276, 2373, 2374
2277, 2374, 2375
2278, 2375, 2376
2279, 2376, 2377
2280, 2377, 2378
2281, 2378, 2379
2282, 2379, 2380
2283, 2380, 2381
2284, 2381, 2382
2285, 2382, 2383
2286, 2383, 2384
2287, 2384, 2385
2288, 2385, 2386
2289, 2386, 2387
2290, 2387, 2388
2291, 2388, 2389
2292, 2389, 2390
2293, 2390, 2391
2294, 2391, 2392
2295, 2392, 2393
2296, 2393, 2394
2297, 2394, 2395
2298, 2395, 2396
2299, 2396, 2397
2300, 2397, 2398
2301, 2398, 2399
2302, 2399, 2400
2303, 2400, 2401
2304, 2401, 2402
2305, 2402, 2403
2306, 2403, 2404
2307, 2404, 2405
2308, 2405, 2406
2309, 2406, 2407
2310, 2407, 2408
2311, 2408, 2409
2312, 2409, 2410
2313, 2410, 2411
2314, 2411, 2412
2315, 2412, 2413
2316, 2413, 2414
2317, 2414, 2415
2318, 2415, 2416
2319, 2416, 2417
2320, 2417, 2418
2321, 2418, 2419
2322, 2419, 2420
2323, 2420, 2421
2324, 2421, 2422
2325, 2422, 2423
2326, 2423, 2424
2327, 2424, 2425
2328, 2425, 2426
2329, 2426, 2427
2330, 2427, 2428
2331, 2428, 2429
2332, 2429,   43
2333,   45, 2430
2334, 2430, 2431
2335, 2431, 2432
2336, 2432, 2433
2337, 2433, 2434
2338, 2434, 2435
2339, 2435, 2436
2340, 2436, 2437
2341, 2437, 2438
2342, 2438, 2439
2343, 2439, 2440
2344, 2440, 2441
2345, 2441, 2442
2346, 2442, 2443
2347, 2443, 2444
2348, 2444, 2445
2349, 2445, 2446
2350, 2446, 2447
2351, 2447, 2448
2352, 2448, 2449
2353, 2449, 2450
2354, 2450, 2451
2355, 2451, 2452
2356, 2452, 2453
2357, 2453, 2454
2358, 2454, 2455
2359, 2455, 2456
2360, 2456, 2457
2361, 2457, 2458
2362, 2458, 2459
2363, 2459, 2460
2364, 2460, 2461
2365, 2461, 2462
2366, 2462, 2463
2367, 2463, 2464
2368, 2464, 2465
2369, 2465, 2466
2370, 2466, 2467
2371, 2467, 2468
2372, 2468, 2469
2373, 2469, 2470
2374, 2470, 2471
2375, 2471, 2472
2376, 2472, 2473
2377, 2473, 2474
2378, 2474, 2475
2379, 2475, 2476
2380, 2476, 2477
2381, 2477, 2478
2382, 2478, 2479
2383, 2479, 2480
2384, 2480, 2481
2385, 2481, 2482
2386, 2482,   44
2387,   46, 2483
2388, 2483, 2484
2389, 2484, 2485
2390, 2485, 2486
2391, 2486, 2487
2392, 2487, 2488
2393, 2488, 2489
2394, 2489, 2490
2395, 2490, 2491
2396, 2491, 2492
2397, 2492, 2493
2398, 2493, 2494
2399, 2494, 2495
2400, 2495, 2496
2401, 2496, 2497
2402, 2497, 2498
2403, 2498, 2499
2404, 2499, 2500
2405, 2500, 2501
2406, 2501, 2502
2407, 2502, 2503
2408, 2503, 2504
2409, 2504, 2505
2410, 2505, 2506
2411, 2506, 2507
2412, 2507,   45
2413,   47, 2508
2414, 2508, 2509
2415, 2509, 2510
2416, 2510, 2511
2417, 2511, 2512
2418, 2512, 2513
2419, 2513, 2514
2420, 2514, 2515
2421, 2515, 2516
2422, 2516, 2517
2423, 2517, 2518
2424, 2518, 2519
2425, 2519, 2520
2426, 2520, 2521
2427, 2521, 2522
2428, 2522, 2523
2429, 2523, 2524
2430, 2524, 2525
2431, 2525, 2526
2432, 2526, 2527
2433, 2527, 2528
2434, 2528, 2529
2435, 2529, 2530
2436, 2530, 2531
2437, 2531, 2532
2438, 2532, 2533
2439, 2533, 2534
2440, 2534, 2535
2441, 2535, 2536
2442, 2536, 2537
2443, 2537, 2538
2444, 2538, 2539
2445, 2539, 2540
2446, 2540, 2541
2447, 2541, 2542
2448, 2542, 2543
2449, 2543, 2544
2450, 2544, 2545
2451, 2545, 2546
2452, 2546,   46
2453,   21, 2547
2454, 2547, 2548
2455, 2548, 2549
2456, 2549, 2550
2457, 2550, 2551
2458, 2551, 2552
2459, 2552, 2553
2460, 2553, 2554
2461, 2554, 2555
2462, 2555, 2556
2463, 2556, 2557
2464, 2557, 2558
2465, 2558, 2559
2466, 2559, 2560
2467, 2560, 2561
2468, 2561, 2562
2469, 2562, 2563
2470, 2563, 2564
2471, 2564, 2565
2472, 2565, 2566
2473, 2566, 2567
2474, 2567, 2568
2475, 2568, 2569
2476, 2569, 2570
2477, 2570, 2571
2478, 2571, 2572
2479, 2572, 2573
2480, 2573, 2574
2481, 2574, 2575
2482, 2575, 2576
2483, 2576, 2577
2484, 2577, 2578
2485, 2578, 2579
2486, 2579, 2580
2487, 2580, 2581
2488, 2581, 2582
2489, 2582, 2583
2490, 2583, 2584
2491, 2584, 2585
2492, 2585,   48
2493,   49, 2586
2494, 2586, 2587
2495, 2587, 2588
2496, 2588, 2589
2497, 2589, 2590
2498, 2590, 2591
2499, 2591, 2592
2500, 2592, 2593
2501, 2593, 2594
2502, 2594, 2595
2503, 2595, 2596
2504, 2596, 2597
2505, 2597, 2598
2506, 2598, 2599
2507, 2599, 2600
2508, 2600, 2601
2509, 2601, 2602
2510, 2602, 2603
2511, 2603, 2604
2512, 2604, 2605
2513, 2605, 2606
2514, 2606, 2607
2515, 2607, 2608
2516, 2608, 2609
2517, 2609, 2610
2518, 2610,   21
2519,   50, 2611
2520, 2611, 2612
2521, 2612, 2613
2522, 2613, 2614
2523, 2614, 2615
2524, 2615, 2616
2525, 2616, 2617
2526, 2617, 2618
2527, 2618, 2619
2528, 2619, 2620
2529, 2620, 2621
2530, 2621, 2622
2531, 2622, 2623
2532, 2623, 2624
2533, 2624, 2625
2534, 2625, 2626
2535, 2626, 2627
2536, 2627, 2628
2537, 2628, 2629
2538, 2629, 2630
2539, 2630, 2631
2540, 2631, 2632
2541, 2632, 2633
2542, 2633, 2634
2543, 2634, 2635
2544, 2635, 2636
2545, 2636, 2637
2546, 2637, 2638
2547, 2638, 2639
2548, 2639, 2640
2549, 2640, 2641
2550, 2641, 2642
2551, 2642, 2643
2552, 2643, 2644
2553, 2644, 2645
2554, 2645, 2646
2555, 2646, 2647
2556, 2647, 2648
2557, 2648, 2649
2558, 2649, 2650
2559, 2650, 2651
2560, 2651, 2652
2561, 2652, 2653
2562, 2653, 2654
2563, 2654, 2655
2564, 2655, 2656
2565, 2656, 2657
2566, 2657, 2658
2567, 2658, 2659
2568, 2659, 2660
2569, 2660, 2661
2570, 2661, 2662
2571, 2662, 2663
2572, 2663,   49
2573,   51, 2664
2574, 2664, 2665
2575, 2665, 2666
2576, 2666, 2667
2577, 2667, 2668
2578, 2668, 2669
2579, 2669, 2670
2580, 2670, 2671
2581, 2671, 2672
2582, 2672, 2673
2583, 2673, 2674
2584, 2674, 2675
2585, 2675, 2676
2586, 2676, 2677
2587, 2677, 2678
2588, 2678, 2679
2589, 2679, 2680
2590, 2680, 2681
2591, 2681, 2682
2592, 2682, 2683
2593, 2683, 2684
2594, 2684, 2685
2595, 2685, 2686
2596, 2686, 2687
2597, 2687, 2688
2598, 2688, 2689
2599, 2689, 2690
2600, 2690, 2691
2601, 2691, 2692
2602, 2692, 2693
2603, 2693, 2694
2604, 2694, 2695
2605, 2695, 2696
2606, 2696, 2697
2607, 2697, 2698
2608, 2698, 2699
2609, 2699, 2700
2610, 2700, 2701
2611, 2701, 2702
2612, 2702, 2703
2613, 2703, 2704
2614, 2704, 2705
2615, 2705, 2706
2616, 2706, 2707
2617, 2707, 2708
2618, 2708, 2709
2619, 2709, 2710
2620, 2710, 2711
2621, 2711, 2712
2622, 2712, 2713
2623, 2713, 2714
2624, 2714, 2715
2625, 2715, 2716
2626, 2716, 2717
2627, 2717, 2718
2628, 2718, 2719
2629, 2719, 2720
2630, 2720, 2721
2631, 2721, 2722
2632, 2722, 2723
2633, 2723, 2724
2634, 2724, 2725
2635, 2725, 2726
2636, 2726, 2727
2637, 2727, 2728
2638, 2728, 2729
2639, 2729, 2730
2640, 2730, 2731
2641, 2731, 2732
2642, 2732, 2733
2643, 2733, 2734
2644, 2734, 2735
2645, 2735, 2736
2646, 2736, 2737
2647, 2737, 2738
2648, 2738, 2739
2649, 2739, 2740
2650, 2740, 2741
2651, 2741, 2742
2652, 2742,   50
2653,   52, 2743
2654, 2743, 2744
2655, 2744, 2745
2656, 2745, 2746
2657, 2746, 2747
2658, 2747, 2748
2659, 2748, 2749
2660, 2749, 2750
2661, 2750, 2751
2662, 2751, 2752
2663, 2752, 2753
2664, 2753, 2754
2665, 2754, 2755
2666, 2755, 2756
2667, 2756, 2757
2668, 2757, 2758
2669, 2758, 2759
2670, 2759, 2760
2671, 2760, 2761
2672, 2761, 2762
2673, 2762, 2763
2674, 2763, 2764
2675, 2764, 2765
2676, 2765, 2766
2677, 2766, 2767
2678, 2767, 2768
2679, 2768, 2769
2680, 2769, 2770
2681, 2770, 2771
2682, 2771, 2772
2683, 2772, 2773
2684, 2773, 2774
2685, 2774, 2775
2686, 2775, 2776
2687, 2776, 2777
2688, 2777, 2778
2689, 2778, 2779
2690, 2779, 2780
2691, 2780, 2781
2692, 2781, 2782
2693, 2782, 2783
2694, 2783, 2784
2695, 2784, 2785
2696, 2785, 2786
2697, 2786, 2787
2698, 2787, 2788
2699, 2788, 2789
2700, 2789, 2790
2701, 2790, 2791
2702, 2791, 2792
2703, 2792, 2793
2704, 2793, 2794
2705, 2794, 2795
2706, 2795,   51
2707,   53, 2796
2708, 2796, 2797
2709, 2797, 2798
2710, 2798, 2799
2711, 2799, 2800
2712, 2800, 2801
2713, 2801, 2802
2714, 2802, 2803
2715, 2803, 2804
2716, 2804, 2805
2717, 2805, 2806
2718, 2806, 2807
2719, 2807, 2808
2720, 2808, 2809
2721, 2809, 2810
2722, 2810, 2811
2723, 2811, 2812
2724, 2812, 2813
2725, 2813, 2814
2726, 2814, 2815
2727, 2815, 2816
2728, 2816, 2817
2729, 2817, 2818
2730, 2818, 2819
2731, 2819, 2820
2732, 2820,   52
2733,   54, 2821
2734, 2821, 2822
2735, 2822, 2823
2736, 2823, 2824
2737, 2824, 2825
2738, 2825, 2826
2739, 2826, 2827
2740, 2827, 2828
2741, 2828, 2829
2742, 2829, 2830
2743, 2830, 2831
2744, 2831, 2832
2745, 2832, 2833
2746, 2833, 2834
2747, 2834, 2835
2748, 2835, 2836
2749, 2836, 2837
2750, 2837, 2838
2751, 2838, 2839
2752, 2839, 2840
2753, 2840, 2841
2754, 2841, 2842
2755, 2842, 2843
2756, 2843, 2844
2757, 2844, 2845
2758, 2845, 2846
2759, 2846, 2847
2760, 2847, 2848
2761, 2848, 2849
2762, 2849, 2850
2763, 2850, 2851
2764, 2851, 2852
2765, 2852, 2853
2766, 2853, 2854
2767, 2854, 2855
2768, 2855, 2856
2769, 2856, 2857
2770, 2857, 2858
2771, 2858, 2859
2772, 2859,   53
2773,   55, 2860
2774, 2860, 2861
2775, 2861, 2862
2776, 2862, 2863
2777, 2863, 2864
2778, 2864, 2865
2779, 2865, 2866
2780, 2866, 2867
2781, 2867, 2868
2782, 2868, 2869
2783, 2869, 2870
2784, 2870, 2871
2785, 2871, 2872
2786, 2872, 2873
2787, 2873, 2874
2788, 2874, 2875
2789, 2875, 2876
2790, 2876, 2877
2791, 2877, 2878
2792, 2878, 2879
2793, 2879, 2880
2794, 2880, 2881
2795, 2881, 2882
2796, 2882, 2883
2797, 2883, 2884
2798, 2884,   27
2799,   56, 2885
2800, 2885, 2886
2801, 2886, 2887
2802, 2887, 2888
2803, 2888, 2889
2804, 2889, 2890
2805, 2890, 2891
2806, 2891, 2892
2807, 2892, 2893
2808, 2893, 2894
2809, 2894, 2895
2810, 2895, 2896
2811, 2896, 2897
2812, 2897, 2898
2813, 2898, 2899
2814, 2899, 2900
2815, 2900, 2901
2816, 2901, 2902
2817, 2902, 2903
2818, 2903, 2904
2819, 2904, 2905
2820, 2905, 2906
2821, 2906, 2907
2822, 2907, 2908
2823, 2908, 2909
2824, 2909, 2910
2825, 2910, 2911
2826, 2911, 2912
2827, 2912, 2913
2828, 2913, 2914
2829, 2914, 2915
2830, 2915, 2916
2831, 2916, 2917
2832, 2917, 2918
2833, 2918, 2919
2834, 2919, 2920
2835, 2920, 2921
2836, 2921, 2922
2837, 2922, 2923
2838, 2923, 2924
2839, 2924, 2925
2840, 2925, 2926
2841, 2926, 2927
2842, 2927, 2928
2843, 2928, 2929
2844, 2929, 2930
2845, 2930, 2931
2846, 2931, 2932
2847, 2932, 2933
2848, 2933, 2934
2849, 2934, 2935
2850, 2935, 2936
2851, 2936, 2937
2852, 2937,   55
2853,   57, 2938
2854, 2938, 2939
2855, 2939, 2940
2856, 2940, 2941
2857, 2941, 2942
2858, 2942, 2943
2859, 2943, 2944
2860, 2944, 2945
2861, 2945, 2946
2862, 2946, 2947
2863, 2947, 2948
2864, 2948, 2949
2865, 2949, 2950
2866, 2950, 2951
2867, 2951, 2952
2868, 2952, 2953
2869, 2953, 2954
2870, 2954, 2955
2871, 2955, 2956
2872, 2956, 2957
2873, 2957, 2958
2874, 2958, 2959
2875, 2959, 2960
2876, 2960, 2961
2877, 2961, 2962
2878, 2962, 2963
2879, 2963, 2964
2880, 2964, 2965
2881, 2965, 2966
2882, 2966, 2967
2883, 2967, 2968
2884, 2968, 2969
2885, 2969, 2970
2886, 2970, 2971
2887, 2971, 2972
2888, 2972, 2973
2889, 2973, 2974
2890, 2974, 2975
2891, 2975, 2976
2892, 2976, 2977
2893, 2977, 2978
2894, 2978, 2979
2895, 2979, 2980
2896, 2980, 2981
2897, 2981, 2982
2898, 2982, 2983
2899, 2983, 2984
2900, 2984, 2985
2901, 2985, 2986
2902, 2986, 2987
2903, 2987, 2988
2904, 2988, 2989
2905, 2989, 2990
2906, 2990, 2991
2907, 2991, 2992
2908, 2992, 2993
2909, 2993, 2994
2910, 2994, 2995
2911, 2995, 2996
2912, 2996, 2997
2913, 2997, 2998
2914, 2998, 2999
2915, 2999, 3000
2916, 3000, 3001
2917, 3001, 3002
2918, 3002, 3003
2919, 3003, 3004
2920, 3004, 3005
2921, 3005, 3006
2922, 3006, 3007
2923, 3007, 3008
2924, 3008, 3009
2925, 3009, 3010
2926, 3010, 3011
2927, 3011, 3012
2928, 3012, 3013
2929, 3013, 3014
2930, 3014, 3015
2931, 3015, 3016
2932, 3016,   56
2933,   58, 3017
2934, 3017, 3018
2935, 3018, 3019
2936, 3019, 3020
2937, 3020, 3021
2938, 3021, 3022
2939, 3022, 3023
2940, 3023, 3024
2941, 3024, 3025
2942, 3025, 3026
2943, 3026, 3027
2944, 3027, 3028
2945, 3028, 3029
2946, 3029, 3030
2947, 3030, 3031
2948, 3031, 3032
2949, 3032, 3033
2950, 3033, 3034
2951, 3034, 3035
2952, 3035, 3036
2953, 3036, 3037
2954, 3037, 3038
2955, 3038, 3039
2956, 3039, 3040
2957, 3040, 3041
2958, 3041, 3042
2959, 3042, 3043
2960, 3043, 3044
2961, 3044, 3045
2962, 3045, 3046
2963, 3046, 3047
2964, 3047, 3048
2965, 3048, 3049
2966, 3049, 3050
2967, 3050, 3051
2968, 3051, 3052
2969, 3052, 3053
2970, 3053, 3054
2971, 3054, 3055
2972, 3055, 3056
2973, 3056, 3057
2974, 3057, 3058
2975, 3058, 3059
2976, 3059, 3060
2977, 3060, 3061
2978, 3061, 3062
2979, 3062, 3063
2980, 3063, 3064
2981, 3064, 3065
2982, 3065, 3066
2983, 3066, 3067
2984, 3067, 3068
2985, 3068, 3069
2986, 3069,   57
2987,   59, 3070
2988, 3070, 3071
2989, 3071, 3072
2990, 3072, 3073
2991, 3073, 3074
2992, 3074, 3075
2993, 3075, 3076
2994, 3076, 3077
2995, 3077, 3078
2996, 3078, 3079
2997, 3079, 3080
2998, 3080, 3081
2999, 3081, 3082
3000, 3082, 3083
3001, 3083, 3084
3002, 3084, 3085
3003, 3085, 3086
3004, 3086, 3087
3005, 3087, 3088
3006, 3088, 3089
3007, 3089, 3090
3008, 3090, 3091
3009, 3091, 3092
3010, 3092, 3093
3011, 3093, 3094
3012, 3094,   58
3013,   60, 3095
3014, 3095, 3096
3015, 3096, 3097
3016, 3097, 3098
3017, 3098, 3099
3018, 3099, 3100
3019, 3100, 3101
3020, 3101, 3102
3021, 3102, 3103
3022, 3103, 3104
3023, 3104, 3105
3024, 3105, 3106
3025, 3106, 3107
3026, 3107, 3108
3027, 3108, 3109
3028, 3109, 3110
3029, 3110, 3111
3030, 3111, 3112
3031, 3112, 3113
3032, 3113, 3114
3033, 3114, 3115
3034, 3115, 3116
3035, 3116, 3117
3036, 3117, 3118
3037, 3118, 3119
3038, 3119, 3120
3039, 3120, 3121
3040, 3121, 3122
3041, 3122, 3123
3042, 3123, 3124
3043, 3124, 3125
3044, 3125, 3126
3045, 3126, 3127
3046, 3127, 3128
3047, 3128, 3129
3048, 3129, 3130
3049, 3130, 3131
3050, 3131, 3132
3051, 3132, 3133
3052, 3133,   59
3053,   61, 3134
3054, 3134, 3135
3055, 3135, 3136
3056, 3136, 3137
3057, 3137, 3138
3058, 3138, 3139
3059, 3139, 3140
3060, 3140, 3141
3061, 3141, 3142
3062, 3142, 3143
3063, 3143, 3144
3064, 3144, 3145
3065, 3145, 3146
3066, 3146, 3147
3067, 3147, 3148
3068, 3148, 3149
3069, 3149, 3150
3070, 3150, 3151
3071, 3151, 3152
3072, 3152, 3153
3073, 3153, 3154
3074, 3154, 3155
3075, 3155, 3156
3076, 3156, 3157
3077, 3157, 3158
3078, 3158, 3159
3079, 3159, 3160
3080, 3160, 3161
3081, 3161, 3162
3082, 3162, 3163
3083, 3163, 3164
3084, 3164, 3165
3085, 3165, 3166
3086, 3166, 3167
3087, 3167, 3168
3088, 3168, 3169
3089, 3169, 3170
3090, 3170, 3171
3091, 3171, 3172
3092, 3172, 3173
3093, 3173, 3174
3094, 3174, 3175
3095, 3175, 3176
3096, 3176, 3177
3097, 3177, 3178
3098, 3178, 3179
3099, 3179, 3180
3100, 3180, 3181
3101, 3181, 3182
3102, 3182, 3183
3103, 3183, 3184
3104, 3184, 3185
3105, 3185, 3186
3106, 3186, 3187
3107, 3187, 3188
3108, 3188, 3189
3109, 3189, 3190
3110, 3190, 3191
3111, 3191, 3192
3112, 3192, 3193
3113, 3193, 3194
3114, 3194, 3195
3115, 3195, 3196
3116, 3196, 3197
3117, 3197, 3198
3118, 3198, 3199
3119, 3199, 3200
3120, 3200, 3201
3121, 3201, 3202
3122, 3202, 3203
3123, 3203, 3204
3124, 3204, 3205
3125, 3205, 3206
3126, 3206, 3207
3127, 3207, 3208
3128, 3208, 3209
3129, 3209, 3210
3130, 3210, 3211
3131, 3211, 3212
3132, 3212, 3213
3133, 3213, 3214
3134, 3214, 3215
3135, 3215, 3216
3136, 3216, 3217
3137, 3217, 3218
3138, 3218, 3219
3139, 3219, 3220
3140, 3220, 3221
3141, 3221, 3222
3142, 3222, 3223
3143, 3223, 3224
3144, 3224, 3225
3145, 3225, 3226
3146, 3226, 3227
3147, 3227, 3228
3148, 3228, 3229
3149, 3229, 3230
3150, 3230, 3231
3151, 3231, 3232
3152, 3232, 3233
3153, 3233, 3234
3154, 3234, 3235
3155, 3235, 3236
3156, 3236, 3237
3157, 3237, 3238
3158, 3238, 3239
3159, 3239, 3240
3160, 3240, 3241
3161, 3241, 3242
3162, 3242, 3243
3163, 3243, 3244
3164, 3244, 3245
3165, 3245, 3246
3166, 3246, 3247
3167, 3247, 3248
3168, 3248, 3249
3169, 3249, 3250
3170, 3250, 3251
3171, 3251, 3252
3172, 3252, 3253
3173, 3253, 3254
3174, 3254, 3255
3175, 3255, 3256
3176, 3256, 3257
3177, 3257, 3258
3178, 3258, 3259
3179, 3259, 3260
3180, 3260, 3261
3181, 3261, 3262
3182, 3262,    5
3183,   62, 3263
3184, 3263, 3264
3185, 3264, 3265
3186, 3265, 3266
3187, 3266, 3267
3188, 3267, 3268
3189, 3268, 3269
3190, 3269, 3270
3191, 3270, 3271
3192, 3271, 3272
3193, 3272, 3273
3194, 3273, 3274
3195, 3274, 3275
3196, 3275, 3276
3197, 3276, 3277
3198, 3277, 3278
3199, 3278, 3279
3200, 3279, 3280
3201, 3280, 3281
3202, 3281, 3282
3203, 3282, 3283
3204, 3283, 3284
3205, 3284, 3285
3206, 3285, 3286
3207, 3286, 3287
3208, 3287, 3288
3209, 3288, 3289
3210, 3289, 3290
3211, 3290, 3291
3212, 3291, 3292
3213, 3292, 3293
3214, 3293, 3294
3215, 3294,   61
3216,   63, 3295
3217, 3295, 3296
3218, 3296, 3297
3219, 3297, 3298
3220, 3298, 3299
3221, 3299, 3300
3222, 3300, 3301
3223, 3301, 3302
3224, 3302, 3303
3225, 3303, 3304
3226, 3304, 3305
3227, 3305, 3306
3228, 3306, 3307
3229, 3307, 3308
3230, 3308, 3309
3231, 3309, 3310
3232, 3310, 3311
3233, 3311, 3312
3234, 3312, 3313
3235, 3313, 3314
3236, 3314, 3315
3237, 3315, 3316
3238, 3316, 3317
3239, 3317, 3318
3240, 3318, 3319
3241, 3319, 3320
3242, 3320, 3321
3243, 3321, 3322
3244, 3322, 3323
3245, 3323, 3324
3246, 3324, 3325
3247, 3325, 3326
3248, 3326,   29
3249,   64, 3327
3250, 3327, 3328
3251, 3328, 3329
3252, 3329, 3330
3253, 3330, 3331
3254, 3331, 3332
3255, 3332, 3333
3256, 3333, 3334
3257, 3334, 3335
3258, 3335, 3336
3259, 3336, 3337
3260, 3337, 3338
3261, 3338, 3339
3262, 3339, 3340
3263, 3340, 3341
3264, 3341, 3342
3265, 3342, 3343
3266, 3343, 3344
3267, 3344, 3345
3268, 3345, 3346
3269, 3346, 3347
3270, 3347, 3348
3271, 3348, 3349
3272, 3349, 3350
3273, 3350, 3351
3274, 3351, 3352
3275, 3352, 3353
3276, 3353, 3354
3277, 3354, 3355
3278, 3355, 3356
3279, 3356, 3357
3280, 3357, 3358
3281, 3358, 3359
3282, 3359, 3360
3283, 3360, 3361
3284, 3361, 3362
3285, 3362, 3363
3286, 3363, 3364
3287, 3364, 3365
3288, 3365, 3366
3289, 3366, 3367
3290, 3367, 3368
3291, 3368, 3369
3292, 3369, 3370
3293, 3370, 3371
3294, 3371, 3372
3295, 3372, 3373
3296, 3373, 3374
3297, 3374, 3375
3298, 3375, 3376
3299, 3376, 3377
3300, 3377, 3378
3301, 3378, 3379
3302, 3379, 3380
3303, 3380, 3381
3304, 3381, 3382
3305, 3382, 3383
3306, 3383, 3384
3307, 3384, 3385
3308, 3385, 3386
3309, 3386, 3387
3310, 3387, 3388
3311, 3388, 3389
3312, 3389, 3390
3313, 3390, 3391
3314, 3391,   63
3315,   65, 3392
3316, 3392, 3393
3317, 3393, 3394
3318, 3394, 3395
3319, 3395, 3396
3320, 3396, 3397
3321, 3397, 3398
3322, 3398, 3399
3323, 3399, 3400
3324, 3400, 3401
3325, 3401, 3402
3326, 3402, 3403
3327, 3403, 3404
3328, 3404, 3405
3329, 3405, 3406
3330, 3406, 3407
3331, 3407, 3408
3332, 3408, 3409
3333, 3409, 3410
3334, 3410, 3411
3335, 3411, 3412
3336, 3412, 3413
3337, 3413, 3414
3338, 3414, 3415
3339, 3415, 3416
3340, 3416, 3417
3341, 3417, 3418
3342, 3418, 3419
3343, 3419, 3420
3344, 3420, 3421
3345, 3421, 3422
3346, 3422, 3423
3347, 3423, 3424
3348, 3424, 3425
3349, 3425, 3426
3350, 3426, 3427
3351, 3427, 3428
3352, 3428, 3429
3353, 3429, 3430
3354, 3430, 3431
3355, 3431, 3432
3356, 3432, 3433
3357, 3433, 3434
3358, 3434, 3435
3359, 3435, 3436
3360, 3436, 3437
3361, 3437, 3438
3362, 3438, 3439
3363, 3439, 3440
3364, 3440, 3441
3365, 3441, 3442
3366, 3442, 3443
3367, 3443, 3444
3368, 3444, 3445
3369, 3445, 3446
3370, 3446, 3447
3371, 3447, 3448
3372, 3448, 3449
3373, 3449, 3450
3374, 3450, 3451
3375, 3451, 3452
3376, 3452, 3453
3377, 3453, 3454
3378, 3454, 3455
3379, 3455, 3456
3380, 3456,   64
3381,   66, 3457
3382, 3457, 3458
3383, 3458, 3459
3384, 3459, 3460
3385, 3460, 3461
3386, 3461, 3462
3387, 3462, 3463
3388, 3463, 3464
3389, 3464, 3465
3390, 3465, 3466
3391, 3466, 3467
3392, 3467, 3468
3393, 3468, 3469
3394, 3469, 3470
3395, 3470, 3471
3396, 3471, 3472
3397, 3472, 3473
3398, 3473, 3474
3399, 3474, 3475
3400, 3475, 3476
3401, 3476, 3477
3402, 3477, 3478
3403, 3478, 3479
3404, 3479, 3480
3405, 3480, 3481
3406, 3481, 3482
3407, 3482, 3483
3408, 3483, 3484
3409, 3484, 3485
3410, 3485, 3486
3411, 3486, 3487
3412, 3487, 3488
3413, 3488, 3489
3414, 3489, 3490
3415, 3490, 3491
3416, 3491, 3492
3417, 3492, 3493
3418, 3493, 3494
3419, 3494, 3495
3420, 3495, 3496
3421, 3496, 3497
3422, 3497, 3498
3423, 3498, 3499
3424, 3499, 3500
3425, 3500, 3501
3426, 3501, 3502
3427, 3502, 3503
3428, 3503, 3504
3429, 3504, 3505
3430, 3505, 3506
3431, 3506, 3507
3432, 3507, 3508
3433, 3508, 3509
3434, 3509, 3510
3435, 3510, 3511
3436, 3511, 3512
3437, 3512, 3513
3438, 3513, 3514
3439, 3514, 3515
3440, 3515, 3516
3441, 3516, 3517
3442, 3517, 3518
3443, 3518, 3519
3444, 3519, 3520
3445, 3520, 3521
3446, 3521,   65
3447,   67, 3522
3448, 3522, 3523
3449, 3523, 3524
3450, 3524, 3525
3451, 3525, 3526
3452, 3526, 3527
3453, 3527, 3528
3454, 3528, 3529
3455, 3529, 3530
3456, 3530, 3531
3457, 3531, 3532
3458, 3532, 3533
3459, 3533, 3534
3460, 3534, 3535
3461, 3535, 3536
3462, 3536, 3537
3463, 3537, 3538
3464, 3538, 3539
3465, 3539, 3540
3466, 3540, 3541
3467, 3541, 3542
3468, 3542, 3543
3469, 3543, 3544
3470, 3544, 3545
3471, 3545, 3546
3472, 3546, 3547
3473, 3547, 3548
3474, 3548, 3549
3475, 3549, 3550
3476, 3550, 3551
3477, 3551, 3552
3478, 3552, 3553
3479, 3553, 3554
3480, 3554, 3555
3481, 3555, 3556
3482, 3556, 3557
3483, 3557, 3558
3484, 3558, 3559
3485, 3559, 3560
3486, 3560, 3561
3487, 3561, 3562
3488, 3562, 3563
3489, 3563, 3564
3490, 3564, 3565
3491, 3565, 3566
3492, 3566, 3567
3493, 3567, 3568
3494, 3568, 3569
3495, 3569, 3570
3496, 3570, 3571
3497, 3571, 3572
3498, 3572, 3573
3499, 3573, 3574
3500, 3574, 3575
3501, 3575, 3576
3502, 3576, 3577
3503, 3577, 3578
3504, 3578, 3579
3505, 3579, 3580
3506, 3580, 3581
3507, 3581, 3582
3508, 3582, 3583
3509, 3583, 3584
3510, 3584, 3585
3511, 3585, 3586
3512, 3586,   66
3513,   36, 3587
3514, 3587, 3588
3515, 3588, 3589
3516, 3589, 3590
3517, 3590, 3591
3518, 3591, 3592
3519, 3592, 3593
3520, 3593, 3594
3521, 3594, 3595
3522, 3595, 3596
3523, 3596, 3597
3524, 3597, 3598
3525, 3598, 3599
3526, 3599, 3600
3527, 3600, 3601
3528, 3601, 3602
3529, 3602, 3603
3530, 3603, 3604
3531, 3604, 3605
3532, 3605, 3606
3533, 3606, 3607
3534, 3607, 3608
3535, 3608, 3609
3536, 3609, 3610
3537, 3610, 3611
3538, 3611, 3612
3539, 3612, 3613
3540, 3613, 3614
3541, 3614, 3615
3542, 3615, 3616
3543, 3616, 3617
3544, 3617, 3618
3545, 3618, 3619
3546, 3619, 3620
3547, 3620, 3621
3548, 3621, 3622
3549, 3622, 3623
3550, 3623, 3624
3551, 3624, 3625
3552, 3625, 3626
3553, 3626, 3627
3554, 3627, 3628
3555, 3628, 3629
3556, 3629, 3630
3557, 3630, 3631
3558, 3631, 3632
3559, 3632, 3633
3560, 3633, 3634
3561, 3634, 3635
3562, 3635, 3636
3563, 3636, 3637
3564, 3637, 3638
3565, 3638, 3639
3566, 3639, 3640
3567, 3640, 3641
3568, 3641, 3642
3569, 3642, 3643
3570, 3643, 3644
3571, 3644, 3645
3572, 3645, 3646
3573, 3646, 3647
3574, 3647, 3648
3575, 3648, 3649
3576, 3649, 3650
3577, 3650, 3651
3578, 3651,   67
3579,   68, 3652
3580, 3652, 3653
3581, 3653, 3654
3582, 3654, 3655
3583, 3655, 3656
3584, 3656, 3657
3585, 3657, 3658
3586, 3658, 3659
3587, 3659, 3660
3588, 3660, 3661
3589, 3661, 3662
3590, 3662, 3663
3591, 3663, 3664
3592, 3664, 3665
3593, 3665, 3666
3594, 3666, 3667
3595, 3667, 3668
3596, 3668, 3669
3597, 3669, 3670
3598, 3670, 3671
3599, 3671, 3672
3600, 3672, 3673
3601, 3673, 3674
3602, 3674, 3675
3603, 3675, 3676
3604, 3676, 3677
3605, 3677, 3678
3606, 3678, 3679
3607, 3679, 3680
3608, 3680, 3681
3609, 3681, 3682
3610, 3682, 3683
3611, 3683, 3684
3612, 3684, 3685
3613, 3685, 3686
3614, 3686, 3687
3615, 3687, 3688
3616, 3688, 3689
3617, 3689, 3690
3618, 3690, 3691
3619, 3691, 3692
3620, 3692, 3693
3621, 3693, 3694
3622, 3694, 3695
3623, 3695, 3696
3624, 3696, 3697
3625, 3697, 3698
3626, 3698, 3699
3627, 3699, 3700
3628, 3700, 3701
3629, 3701, 3702
3630, 3702, 3703
3631, 3703, 3704
3632, 3704, 3705
3633, 3705, 3706
3634, 3706, 3707
3635, 3707, 3708
3636, 3708, 3709
3637, 3709, 3710
3638, 3710, 3711
3639, 3711, 3712
3640, 3712, 3713
3641, 3713, 3714
3642, 3714, 3715
3643, 3715, 3716
3644, 3716,   36
3645,   69, 3717
3646, 3717, 3718
3647, 3718, 3719
3648, 3719, 3720
3649, 3720, 3721
3650, 3721, 3722
3651, 3722, 3723
3652, 3723, 3724
3653, 3724, 3725
3654, 3725, 3726
3655, 3726, 3727
3656, 3727, 3728
3657, 3728, 3729
3658, 3729, 3730
3659, 3730, 3731
3660, 3731, 3732
3661, 3732, 3733
3662, 3733, 3734
3663, 3734, 3735
3664, 3735, 3736
3665, 3736, 3737
3666, 3737, 3738
3667, 3738, 3739
3668, 3739, 3740
3669, 3740, 3741
3670, 3741, 3742
3671, 3742, 3743
3672, 3743, 3744
3673, 3744, 3745
3674, 3745, 3746
3675, 3746, 3747
3676, 3747, 3748
3677, 3748, 3749
3678, 3749, 3750
3679, 3750, 3751
3680, 3751, 3752
3681, 3752, 3753
3682, 3753, 3754
3683, 3754, 3755
3684, 3755, 3756
3685, 3756, 3757
3686, 3757, 3758
3687, 3758, 3759
3688, 3759, 3760
3689, 3760, 3761
3690, 3761, 3762
3691, 3762, 3763
3692, 3763, 3764
3693, 3764, 3765
3694, 3765, 3766
3695, 3766, 3767
3696, 3767, 3768
3697, 3768, 3769
3698, 3769, 3770
3699, 3770, 3771
3700, 3771, 3772
3701, 3772, 3773
3702, 3773, 3774
3703, 3774, 3775
3704, 3775, 3776
3705, 3776, 3777
3706, 3777, 3778
3707, 3778, 3779
3708, 3779, 3780
3709, 3780, 3781
3710, 3781,   68
3711,   70, 3782
3712, 3782, 3783
3713, 3783, 3784
3714, 3784, 3785
3715, 3785, 3786
3716, 3786, 3787
3717, 3787, 3788
3718, 3788, 3789
3719, 3789, 3790
3720, 3790, 3791
3721, 3791, 3792
3722, 3792, 3793
3723, 3793, 3794
3724, 3794, 3795
3725, 3795, 3796
3726, 3796, 3797
3727, 3797, 3798
3728, 3798, 3799
3729, 3799, 3800
3730, 3800, 3801
3731, 3801, 3802
3732, 3802, 3803
3733, 3803, 3804
3734, 3804, 3805
3735, 3805, 3806
3736, 3806, 3807
3737, 3807, 3808
3738, 3808, 3809
3739, 3809, 3810
3740, 3810, 3811
3741, 3811, 3812
3742, 3812, 3813
3743, 3813, 3814
3744, 3814, 3815
3745, 3815, 3816
3746, 3816, 3817
3747, 3817, 3818
3748, 3818, 3819
3749, 3819, 3820
3750, 3820, 3821
3751, 3821, 3822
3752, 3822, 3823
3753, 3823, 3824
3754, 3824, 3825
3755, 3825, 3826
3756, 3826, 3827
3757, 3827, 3828
3758, 3828, 3829
3759, 3829, 3830
3760, 3830, 3831
3761, 3831, 3832
3762, 3832, 3833
3763, 3833, 3834
3764, 3834, 3835
3765, 3835, 3836
3766, 3836, 3837
3767, 3837, 3838
3768, 3838, 3839
3769, 3839, 3840
3770, 3840, 3841
3771, 3841, 3842
3772, 3842, 3843
3773, 3843, 3844
3774, 3844, 3845
3775, 3845, 3846
3776, 3846,   69
3777,   71, 3847
3778, 3847, 3848
3779, 3848, 3849
3780, 3849, 3850
3781, 3850, 3851
3782, 3851, 3852
3783, 3852, 3853
3784, 3853, 3854
3785, 3854, 3855
3786, 3855, 3856
3787, 3856, 3857
3788, 3857, 3858
3789, 3858, 3859
3790, 3859, 3860
3791, 3860, 3861
3792, 3861, 3862
3793, 3862, 3863
3794, 3863, 3864
3795, 3864, 3865
3796, 3865, 3866
3797, 3866, 3867
3798, 3867, 3868
3799, 3868, 3869
3800, 3869, 3870
3801, 3870, 3871
3802, 3871, 3872
3803, 3872, 3873
3804, 3873, 3874
3805, 3874, 3875
3806, 3875, 3876
3807, 3876, 3877
3808, 3877, 3878
3809, 3878, 3879
3810, 3879, 3880
3811, 3880, 3881
3812, 3881, 3882
3813, 3882, 3883
3814, 3883, 3884
3815, 3884, 3885
3816, 3885, 3886
3817, 3886, 3887
3818, 3887, 3888
3819, 3888, 3889
3820, 3889, 3890
3821, 3890, 3891
3822, 3891, 3892
3823, 3892, 3893
3824, 3893, 3894
3825, 3894, 3895
3826, 3895, 3896
3827, 3896, 3897
3828, 3897, 3898
3829, 3898, 3899
3830, 3899, 3900
3831, 3900, 3901
3832, 3901, 3902
3833, 3902, 3903
3834, 3903, 3904
3835, 3904, 3905
3836, 3905, 3906
3837, 3906, 3907
3838, 3907, 3908
3839, 3908, 3909
3840, 3909, 3910
3841, 3910, 3911
3842, 3911,   70
3843,   72, 3912
3844, 3912, 3913
3845, 3913, 3914
3846, 3914, 3915
3847, 3915, 3916
3848, 3916, 3917
3849, 3917, 3918
3850, 3918, 3919
3851, 3919, 3920
3852, 3920, 3921
3853, 3921, 3922
3854, 3922, 3923
3855, 3923, 3924
3856, 3924, 3925
3857, 3925, 3926
3858, 3926, 3927
3859, 3927, 3928
3860, 3928, 3929
3861, 3929, 3930
3862, 3930, 3931
3863, 3931, 3932
3864, 3932, 3933
3865, 3933, 3934
3866, 3934, 3935
3867, 3935, 3936
3868, 3936, 3937
3869, 3937, 3938
3870, 3938, 3939
3871, 3939, 3940
3872, 3940, 3941
3873, 3941, 3942
3874, 3942, 3943
3875, 3943, 3944
3876, 3944, 3945
3877, 3945, 3946
3878, 3946, 3947
3879, 3947, 3948
3880, 3948, 3949
3881, 3949, 3950
3882, 3950, 3951
3883, 3951, 3952
3884, 3952, 3953
3885, 3953, 3954
3886, 3954, 3955
3887, 3955, 3956
3888, 3956, 3957
3889, 3957, 3958
3890, 3958, 3959
3891, 3959, 3960
3892, 3960, 3961
3893, 3961, 3962
3894, 3962, 3963
3895, 3963, 3964
3896, 3964, 3965
3897, 3965, 3966
3898, 3966, 3967
3899, 3967, 3968
3900, 3968, 3969
3901, 3969, 3970
3902, 3970, 3971
3903, 3971, 3972
3904, 3972, 3973
3905, 3973, 3974
3906, 3974, 3975
3907, 3975, 3976
3908, 3976,   71
3909,   43, 3977
3910, 3977, 3978
3911, 3978, 3979
3912, 3979, 3980
3913, 3980, 3981
3914, 3981, 3982
3915, 3982, 3983
3916, 3983, 3984
3917, 3984, 3985
3918, 3985, 3986
3919, 3986, 3987
3920, 3987, 3988
3921, 3988, 3989
3922, 3989, 3990
3923, 3990, 3991
3924, 3991, 3992
3925, 3992, 3993
3926, 3993, 3994
3927, 3994, 3995
3928, 3995, 3996
3929, 3996, 3997
3930, 3997, 3998
3931, 3998, 3999
3932, 3999, 4000
3933, 4000, 4001
3934, 4001, 4002
3935, 4002, 4003
3936, 4003, 4004
3937, 4004, 4005
3938, 4005, 4006
3939, 4006, 4007
3940, 4007, 4008
3941, 4008,   72
3942,   73, 4009
3943, 4009, 4010
3944, 4010, 4011
3945, 4011, 4012
3946, 4012, 4013
3947, 4013, 4014
3948, 4014, 4015
3949, 4015, 4016
3950, 4016, 4017
3951, 4017, 4018
3952, 4018, 4019
3953, 4019, 4020
3954, 4020, 4021
3955, 4021, 4022
3956, 4022, 4023
3957, 4023, 4024
3958, 4024, 4025
3959, 4025, 4026
3960, 4026, 4027
3961, 4027, 4028
3962, 4028, 4029
3963, 4029, 4030
3964, 4030, 4031
3965, 4031, 4032
3966, 4032, 4033
3967, 4033, 4034
3968, 4034, 4035
3969, 4035, 4036
3970, 4036, 4037
3971, 4037, 4038
3972, 4038, 4039
3973, 4039, 4040
3974, 4040,   43
3975,   74, 4041
3976, 4041, 4042
3977, 4042, 4043
3978, 4043, 4044
3979, 4044, 4045
3980, 4045, 4046
3981, 4046, 4047
3982, 4047, 4048
3983, 4048, 4049
3984, 4049, 4050
3985, 4050, 4051
3986, 4051, 4052
3987, 4052, 4053
3988, 4053, 4054
3989, 4054, 4055
3990, 4055, 4056
3991, 4056, 4057
3992, 4057, 4058
3993, 4058, 4059
3994, 4059, 4060
3995, 4060, 4061
3996, 4061, 4062
3997, 4062, 4063
3998, 4063, 4064
3999, 4064, 4065
4000, 4065, 4066
4001, 4066, 4067
4002, 4067, 4068
4003, 4068, 4069
4004, 4069, 4070
4005, 4070, 4071
4006, 4071, 4072
4007, 4072, 4073
4008, 4073, 4074
4009, 4074, 4075
4010, 4075, 4076
4011, 4076, 4077
4012, 4077, 4078
4013, 4078, 4079
4014, 4079, 4080
4015, 4080, 4081
4016, 4081, 4082
4017, 4082, 4083
4018, 4083, 4084
4019, 4084, 4085
4020, 4085, 4086
4021, 4086, 4087
4022, 4087, 4088
4023, 4088, 4089
4024, 4089, 4090
4025, 4090, 4091
4026, 4091, 4092
4027, 4092, 4093
4028, 4093, 4094
4029, 4094, 4095
4030, 4095, 4096
4031, 4096, 4097
4032, 4097, 4098
4033, 4098, 4099
4034, 4099, 4100
4035, 4100, 4101
4036, 4101, 4102
4037, 4102, 4103
4038, 4103, 4104
4039, 4104, 4105
4040, 4105,   73
4041,   75, 4106
4042, 4106, 4107
4043, 4107, 4108
4044, 4108, 4109
4045, 4109, 4110
4046, 4110, 4111
4047, 4111, 4112
4048, 4112, 4113
4049, 4113, 4114
4050, 4114, 4115
4051, 4115, 4116
4052, 4116, 4117
4053, 4117, 4118
4054, 4118, 4119
4055, 4119, 4120
4056, 4120, 4121
4057, 4121, 4122
4058, 4122, 4123
4059, 4123, 4124
4060, 4124, 4125
4061, 4125, 4126
4062, 4126, 4127
4063, 4127, 4128
4064, 4128, 4129
4065, 4129, 4130
4066, 4130, 4131
4067, 4131, 4132
4068, 4132, 4133
4069, 4133, 4134
4070, 4134, 4135
4071, 4135, 4136
4072, 4136, 4137
4073, 4137, 4138
4074, 4138, 4139
4075, 4139, 4140
4076, 4140, 4141
4077, 4141, 4142
4078, 4142, 4143
4079, 4143, 4144
4080, 4144, 4145
4081, 4145, 4146
4082, 4146, 4147
4083, 4147, 4148
4084, 4148, 4149
4085, 4149, 4150
4086, 4150, 4151
4087, 4151, 4152
4088, 4152, 4153
4089, 4153, 4154
4090, 4154, 4155
4091, 4155, 4156
4092, 4156, 4157
4093, 4157, 4158
4094, 4158, 4159
4095, 4159, 4160
4096, 4160, 4161
4097, 4161, 4162
4098, 4162, 4163
4099, 4163, 4164
4100, 4164, 4165
4101, 4165, 4166
4102, 4166, 4167
4103, 4167, 4168
4104, 4168, 4169
4105, 4169, 4170
4106, 4170,   74
4107,   76, 4171
4108, 4171, 4172
4109, 4172, 4173
4110, 4173, 4174
4111, 4174, 4175
4112, 4175, 4176
4113, 4176, 4177
4114, 4177, 4178
4115, 4178, 4179
4116, 4179, 4180
4117, 4180, 4181
4118, 4181, 4182
4119, 4182, 4183
4120, 4183, 4184
4121, 4184, 4185
4122, 4185, 4186
4123, 4186, 4187
4124, 4187, 4188
4125, 4188, 4189
4126, 4189, 4190
4127, 4190, 4191
4128, 4191, 4192
4129, 4192, 4193
4130, 4193, 4194
4131, 4194, 4195
4132, 4195, 4196
4133, 4196, 4197
4134, 4197, 4198
4135, 4198, 4199
4136, 4199, 4200
4137, 4200, 4201
4138, 4201, 4202
4139, 4202, 4203
4140, 4203, 4204
4141, 4204, 4205
4142, 4205, 4206
4143, 4206, 4207
4144, 4207, 4208
4145, 4208, 4209
4146, 4209, 4210
4147, 4210, 4211
4148, 4211, 4212
4149, 4212, 4213
4150, 4213, 4214
4151, 4214, 4215
4152, 4215, 4216
4153, 4216, 4217
4154, 4217, 4218
4155, 4218, 4219
4156, 4219, 4220
4157, 4220, 4221
4158, 4221, 4222
4159, 4222, 4223
4160, 4223, 4224
4161, 4224, 4225
4162, 4225, 4226
4163, 4226, 4227
4164, 4227, 4228
4165, 4228, 4229
4166, 4229, 4230
4167, 4230, 4231
4168, 4231, 4232
4169, 4232, 4233
4170, 4233, 4234
4171, 4234, 4235
4172, 4235,   75
4173,   77, 4236
4174, 4236, 4237
4175, 4237, 4238
4176, 4238, 4239
4177, 4239, 4240
4178, 4240, 4241
4179, 4241, 4242
4180, 4242, 4243
4181, 4243, 4244
4182, 4244, 4245
4183, 4245, 4246
4184, 4246, 4247
4185, 4247, 4248
4186, 4248, 4249
4187, 4249, 4250
4188, 4250, 4251
4189, 4251, 4252
4190, 4252, 4253
4191, 4253, 4254
4192, 4254, 4255
4193, 4255, 4256
4194, 4256, 4257
4195, 4257, 4258
4196, 4258, 4259
4197, 4259, 4260
4198, 4260, 4261
4199, 4261, 4262
4200, 4262, 4263
4201, 4263, 4264
4202, 4264, 4265
4203, 4265, 4266
4204, 4266, 4267
4205, 4267, 4268
4206, 4268, 4269
4207, 4269, 4270
4208, 4270, 4271
4209, 4271, 4272
4210, 4272, 4273
4211, 4273, 4274
4212, 4274, 4275
4213, 4275, 4276
4214, 4276, 4277
4215, 4277, 4278
4216, 4278, 4279
4217, 4279, 4280
4218, 4280, 4281
4219, 4281, 4282
4220, 4282, 4283
4221, 4283, 4284
4222, 4284, 4285
4223, 4285, 4286
4224, 4286, 4287
4225, 4287, 4288
4226, 4288, 4289
4227, 4289, 4290
4228, 4290, 4291
4229, 4291, 4292
4230, 4292, 4293
4231, 4293, 4294
4232, 4294, 4295
4233, 4295, 4296
4234, 4296, 4297
4235, 4297, 4298
4236, 4298, 4299
4237, 4299, 4300
4238, 4300,   76
4239,   50, 4301
4240, 4301, 4302
4241, 4302, 4303
4242, 4303, 4304
4243, 4304, 4305
4244, 4305, 4306
4245, 4306, 4307
4246, 4307, 4308
4247, 4308, 4309
4248, 4309, 4310
4249, 4310, 4311
4250, 4311, 4312
4251, 4312, 4313
4252, 4313, 4314
4253, 4314, 4315
4254, 4315, 4316
4255, 4316, 4317
4256, 4317, 4318
4257, 4318, 4319
4258, 4319, 4320
4259, 4320, 4321
4260, 4321, 4322
4261, 4322, 4323
4262, 4323, 4324
4263, 4324, 4325
4264, 4325, 4326
4265, 4326, 4327
4266, 4327, 4328
4267, 4328, 4329
4268, 4329, 4330
4269, 4330, 4331
4270, 4331, 4332
4271, 4332, 4333
4272, 4333, 4334
4273, 4334, 4335
4274, 4335, 4336
4275, 4336, 4337
4276, 4337, 4338
4277, 4338, 4339
4278, 4339, 4340
4279, 4340, 4341
4280, 4341, 4342
4281, 4342, 4343
4282, 4343, 4344
4283, 4344, 4345
4284, 4345, 4346
4285, 4346, 4347
4286, 4347, 4348
4287, 4348, 4349
4288, 4349, 4350
4289, 4350, 4351
4290, 4351, 4352
4291, 4352, 4353
4292, 4353, 4354
4293, 4354, 4355
4294, 4355, 4356
4295, 4356, 4357
4296, 4357, 4358
4297, 4358, 4359
4298, 4359, 4360
4299, 4360, 4361
4300, 4361, 4362
4301, 4362, 4363
4302, 4363, 4364
4303, 4364, 4365
4304, 4365,   77
4305,   78, 4366
4306, 4366, 4367
4307, 4367, 4368
4308, 4368, 4369
4309, 4369, 4370
4310, 4370, 4371
4311, 4371, 4372
4312, 4372, 4373
4313, 4373, 4374
4314, 4374, 4375
4315, 4375, 4376
4316, 4376, 4377
4317, 4377, 4378
4318, 4378, 4379
4319, 4379, 4380
4320, 4380, 4381
4321, 4381, 4382
4322, 4382, 4383
4323, 4383, 4384
4324, 4384, 4385
4325, 4385, 4386
4326, 4386, 4387
4327, 4387, 4388
4328, 4388, 4389
4329, 4389, 4390
4330, 4390, 4391
4331, 4391, 4392
4332, 4392, 4393
4333, 4393, 4394
4334, 4394, 4395
4335, 4395, 4396
4336, 4396, 4397
4337, 4397, 4398
4338, 4398, 4399
4339, 4399, 4400
4340, 4400, 4401
4341, 4401, 4402
4342, 4402, 4403
4343, 4403, 4404
4344, 4404, 4405
4345, 4405, 4406
4346, 4406, 4407
4347, 4407, 4408
4348, 4408, 4409
4349, 4409, 4410
4350, 4410, 4411
4351, 4411, 4412
4352, 4412, 4413
4353, 4413, 4414
4354, 4414, 4415
4355, 4415, 4416
4356, 4416, 4417
4357, 4417, 4418
4358, 4418, 4419
4359, 4419, 4420
4360, 4420, 4421
4361, 4421, 4422
4362, 4422, 4423
4363, 4423, 4424
4364, 4424, 4425
4365, 4425, 4426
4366, 4426, 4427
4367, 4427, 4428
4368, 4428, 4429
4369, 4429, 4430
4370, 4430,   50
4371,   79, 4431
4372, 4431, 4432
4373, 4432, 4433
4374, 4433, 4434
4375, 4434, 4435
4376, 4435, 4436
4377, 4436, 4437
4378, 4437, 4438
4379, 4438, 4439
4380, 4439, 4440
4381, 4440, 4441
4382, 4441, 4442
4383, 4442, 4443
4384, 4443, 4444
4385, 4444, 4445
4386, 4445, 4446
4387, 4446, 4447
4388, 4447, 4448
4389, 4448, 4449
4390, 4449, 4450
4391, 4450, 4451
4392, 4451, 4452
4393, 4452, 4453
4394, 4453, 4454
4395, 4454, 4455
4396, 4455, 4456
4397, 4456, 4457
4398, 4457, 4458
4399, 4458, 4459
4400, 4459, 4460
4401, 4460, 4461
4402, 4461, 4462
4403, 4462, 4463
4404, 4463, 4464
4405, 4464, 4465
4406, 4465, 4466
4407, 4466, 4467
4408, 4467, 4468
4409, 4468, 4469
4410, 4469, 4470
4411, 4470, 4471
4412, 4471, 4472
4413, 4472, 4473
4414, 4473, 4474
4415, 4474, 4475
4416, 4475, 4476
4417, 4476, 4477
4418, 4477, 4478
4419, 4478, 4479
4420, 4479, 4480
4421, 4480, 4481
4422, 4481, 4482
4423, 4482, 4483
4424, 4483, 4484
4425, 4484, 4485
4426, 4485, 4486
4427, 4486, 4487
4428, 4487, 4488
4429, 4488, 4489
4430, 4489, 4490
4431, 4490, 4491
4432, 4491, 4492
4433, 4492, 4493
4434, 4493, 4494
4435, 4494, 4495
4436, 4495,   78
4437,   80, 4496
4438, 4496, 4497
4439, 4497, 4498
4440, 4498, 4499
4441, 4499, 4500
4442, 4500, 4501
4443, 4501, 4502
4444, 4502, 4503
4445, 4503, 4504
4446, 4504, 4505
4447, 4505, 4506
4448, 4506, 4507
4449, 4507, 4508
4450, 4508, 4509
4451, 4509, 4510
4452, 4510, 4511
4453, 4511, 4512
4454, 4512, 4513
4455, 4513, 4514
4456, 4514, 4515
4457, 4515, 4516
4458, 4516, 4517
4459, 4517, 4518
4460, 4518, 4519
4461, 4519, 4520
4462, 4520, 4521
4463, 4521, 4522
4464, 4522, 4523
4465, 4523, 4524
4466, 4524, 4525
4467, 4525, 4526
4468, 4526, 4527
4469, 4527, 4528
4470, 4528, 4529
4471, 4529, 4530
4472, 4530, 4531
4473, 4531, 4532
4474, 4532, 4533
4475, 4533, 4534
4476, 4534, 4535
4477, 4535, 4536
4478, 4536, 4537
4479, 4537, 4538
4480, 4538, 4539
4481, 4539, 4540
4482, 4540, 4541
4483, 4541, 4542
4484, 4542, 4543
4485, 4543, 4544
4486, 4544, 4545
4487, 4545, 4546
4488, 4546, 4547
4489, 4547, 4548
4490, 4548, 4549
4491, 4549, 4550
4492, 4550, 4551
4493, 4551, 4552
4494, 4552, 4553
4495, 4553, 4554
4496, 4554, 4555
4497, 4555, 4556
4498, 4556, 4557
4499, 4557, 4558
4500, 4558, 4559
4501, 4559, 4560
4502, 4560,   79
4503,   81, 4561
4504, 4561, 4562
4505, 4562, 4563
4506, 4563, 4564
4507, 4564, 4565
4508, 4565, 4566
4509, 4566, 4567
4510, 4567, 4568
4511, 4568, 4569
4512, 4569, 4570
4513, 4570, 4571
4514, 4571, 4572
4515, 4572, 4573
4516, 4573, 4574
4517, 4574, 4575
4518, 4575, 4576
4519, 4576, 4577
4520, 4577, 4578
4521, 4578, 4579
4522, 4579, 4580
4523, 4580, 4581
4524, 4581, 4582
4525, 4582, 4583
4526, 4583, 4584
4527, 4584, 4585
4528, 4585, 4586
4529, 4586, 4587
4530, 4587, 4588
4531, 4588, 4589
4532, 4589, 4590
4533, 4590, 4591
4534, 4591, 4592
4535, 4592, 4593
4536, 4593, 4594
4537, 4594, 4595
4538, 4595, 4596
4539, 4596, 4597
4540, 4597, 4598
4541, 4598, 4599
4542, 4599, 4600
4543, 4600, 4601
4544, 4601, 4602
4545, 4602, 4603
4546, 4603, 4604
4547, 4604, 4605
4548, 4605, 4606
4549, 4606, 4607
4550, 4607, 4608
4551, 4608, 4609
4552, 4609, 4610
4553, 4610, 4611
4554, 4611, 4612
4555, 4612, 4613
4556, 4613, 4614
4557, 4614, 4615
4558, 4615, 4616
4559, 4616, 4617
4560, 4617, 4618
4561, 4618, 4619
4562, 4619, 4620
4563, 4620, 4621
4564, 4621, 4622
4565, 4622, 4623
4566, 4623, 4624
4567, 4624, 4625
4568, 4625,   80
4569,   82, 4626
4570, 4626, 4627
4571, 4627, 4628
4572, 4628, 4629
4573, 4629, 4630
4574, 4630, 4631
4575, 4631, 4632
4576, 4632, 4633
4577, 4633, 4634
4578, 4634, 4635
4579, 4635, 4636
4580, 4636, 4637
4581, 4637, 4638
4582, 4638, 4639
4583, 4639, 4640
4584, 4640, 4641
4585, 4641, 4642
4586, 4642, 4643
4587, 4643, 4644
4588, 4644, 4645
4589, 4645, 4646
4590, 4646, 4647
4591, 4647, 4648
4592, 4648, 4649
4593, 4649, 4650
4594, 4650, 4651
4595, 4651, 4652
4596, 4652, 4653
4597, 4653, 4654
4598, 4654, 4655
4599, 4655, 4656
4600, 4656, 4657
4601, 4657, 4658
4602, 4658, 4659
4603, 4659, 4660
4604, 4660, 4661
4605, 4661, 4662
4606, 4662, 4663
4607, 4663, 4664
4608, 4664, 4665
4609, 4665, 4666
4610, 4666, 4667
4611, 4667, 4668
4612, 4668, 4669
4613, 4669, 4670
4614, 4670, 4671
4615, 4671, 4672
4616, 4672, 4673
4617, 4673, 4674
4618, 4674, 4675
4619, 4675, 4676
4620, 4676, 4677
4621, 4677, 4678
4622, 4678, 4679
4623, 4679, 4680
4624, 4680, 4681
4625, 4681, 4682
4626, 4682, 4683
4627, 4683, 4684
4628, 4684, 4685
4629, 4685, 4686
4630, 4686, 4687
4631, 4687, 4688
4632, 4688, 4689
4633, 4689, 4690
4634, 4690,   81
4635,   56, 4691
4636, 4691, 4692
4637, 4692, 4693
4638, 4693, 4694
4639, 4694, 4695
4640, 4695, 4696
4641, 4696, 4697
4642, 4697, 4698
4643, 4698, 4699
4644, 4699, 4700
4645, 4700, 4701
4646, 4701, 4702
4647, 4702, 4703
4648, 4703, 4704
4649, 4704, 4705
4650, 4705, 4706
4651, 4706, 4707
4652, 4707, 4708
4653, 4708, 4709
4654, 4709, 4710
4655, 4710, 4711
4656, 4711, 4712
4657, 4712, 4713
4658, 4713, 4714
4659, 4714, 4715
4660, 4715, 4716
4661, 4716, 4717
4662, 4717, 4718
4663, 4718, 4719
4664, 4719, 4720
4665, 4720, 4721
4666, 4721, 4722
4667, 4722,   82
4668,   83, 4723
4669, 4723, 4724
4670, 4724, 4725
4671, 4725, 4726
4672, 4726, 4727
4673, 4727, 4728
4674, 4728, 4729
4675, 4729, 4730
4676, 4730, 4731
4677, 4731, 4732
4678, 4732, 4733
4679, 4733, 4734
4680, 4734, 4735
4681, 4735, 4736
4682, 4736, 4737
4683, 4737, 4738
4684, 4738, 4739
4685, 4739, 4740
4686, 4740, 4741
4687, 4741, 4742
4688, 4742, 4743
4689, 4743, 4744
4690, 4744, 4745
4691, 4745, 4746
4692, 4746, 4747
4693, 4747, 4748
4694, 4748, 4749
4695, 4749, 4750
4696, 4750, 4751
4697, 4751, 4752
4698, 4752, 4753
4699, 4753, 4754
4700, 4754,   30
4701,   84, 4755
4702, 4755, 4756
4703, 4756, 4757
4704, 4757, 4758
4705, 4758, 4759
4706, 4759, 4760
4707, 4760, 4761
4708, 4761, 4762
4709, 4762, 4763
4710, 4763, 4764
4711, 4764, 4765
4712, 4765, 4766
4713, 4766, 4767
4714, 4767, 4768
4715, 4768, 4769
4716, 4769, 4770
4717, 4770, 4771
4718, 4771, 4772
4719, 4772, 4773
4720, 4773, 4774
4721, 4774, 4775
4722, 4775, 4776
4723, 4776, 4777
4724, 4777, 4778
4725, 4778, 4779
4726, 4779, 4780
4727, 4780, 4781
4728, 4781, 4782
4729, 4782, 4783
4730, 4783, 4784
4731, 4784, 4785
4732, 4785, 4786
4733, 4786, 4787
4734, 4787, 4788
4735, 4788, 4789
4736, 4789, 4790
4737, 4790, 4791
4738, 4791, 4792
4739, 4792, 4793
4740, 4793, 4794
4741, 4794, 4795
4742, 4795, 4796
4743, 4796, 4797
4744, 4797, 4798
4745, 4798, 4799
4746, 4799, 4800
4747, 4800, 4801
4748, 4801, 4802
4749, 4802, 4803
4750, 4803, 4804
4751, 4804, 4805
4752, 4805, 4806
4753, 4806, 4807
4754, 4807, 4808
4755, 4808, 4809
4756, 4809, 4810
4757, 4810, 4811
4758, 4811, 4812
4759, 4812, 4813
4760, 4813, 4814
4761, 4814, 4815
4762, 4815, 4816
4763, 4816, 4817
4764, 4817, 4818
4765, 4818, 4819
4766, 4819,   83
4767,   85, 4820
4768, 4820, 4821
4769, 4821, 4822
4770, 4822, 4823
4771, 4823, 4824
4772, 4824, 4825
4773, 4825, 4826
4774, 4826, 4827
4775, 4827, 4828
4776, 4828, 4829
4777, 4829, 4830
4778, 4830, 4831
4779, 4831, 4832
4780, 4832, 4833
4781, 4833, 4834
4782, 4834, 4835
4783, 4835, 4836
4784, 4836, 4837
4785, 4837, 4838
4786, 4838, 4839
4787, 4839, 4840
4788, 4840, 4841
4789, 4841, 4842
4790, 4842, 4843
4791, 4843, 4844
4792, 4844, 4845
4793, 4845, 4846
4794, 4846, 4847
4795, 4847, 4848
4796, 4848, 4849
4797, 4849, 4850
4798, 4850, 4851
4799, 4851, 4852
4800, 4852, 4853
4801, 4853, 4854
4802, 4854, 4855
4803, 4855, 4856
4804, 4856, 4857
4805, 4857, 4858
4806, 4858, 4859
4807, 4859, 4860
4808, 4860, 4861
4809, 4861, 4862
4810, 4862, 4863
4811, 4863, 4864
4812, 4864, 4865
4813, 4865, 4866
4814, 4866, 4867
4815, 4867, 4868
4816, 4868, 4869
4817, 4869, 4870
4818, 4870, 4871
4819, 4871, 4872
4820, 4872, 4873
4821, 4873, 4874
4822, 4874, 4875
4823, 4875, 4876
4824, 4876, 4877
4825, 4877, 4878
4826, 4878, 4879
4827, 4879, 4880
4828, 4880, 4881
4829, 4881, 4882
4830, 4882, 4883
4831, 4883, 4884
4832, 4884,   84
4833,   86, 4885
4834, 4885, 4886
4835, 4886, 4887
4836, 4887, 4888
4837, 4888, 4889
4838, 4889, 4890
4839, 4890, 4891
4840, 4891, 4892
4841, 4892, 4893
4842, 4893, 4894
4843, 4894, 4895
4844, 4895, 4896
4845, 4896, 4897
4846, 4897, 4898
4847, 4898, 4899
4848, 4899, 4900
4849, 4900, 4901
4850, 4901, 4902
4851, 4902, 4903
4852, 4903, 4904
4853, 4904, 4905
4854, 4905, 4906
4855, 4906, 4907
4856, 4907, 4908
4857, 4908, 4909
4858, 4909, 4910
4859, 4910, 4911
4860, 4911, 4912
4861, 4912, 4913
4862, 4913, 4914
4863, 4914, 4915
4864, 4915, 4916
4865, 4916, 4917
4866, 4917, 4918
4867, 4918, 4919
4868, 4919, 4920
4869, 4920, 4921
4870, 4921, 4922
4871, 4922, 4923
4872, 4923, 4924
4873, 4924, 4925
4874, 4925, 4926
4875, 4926, 4927
4876, 4927, 4928
4877, 4928, 4929
4878, 4929, 4930
4879, 4930, 4931
4880, 4931, 4932
4881, 4932, 4933
4882, 4933, 4934
4883, 4934, 4935
4884, 4935, 4936
4885, 4936, 4937
4886, 4937, 4938
4887, 4938, 4939
4888, 4939, 4940
4889, 4940, 4941
4890, 4941, 4942
4891, 4942, 4943
4892, 4943, 4944
4893, 4944, 4945
4894, 4945, 4946
4895, 4946, 4947
4896, 4947, 4948
4897, 4948, 4949
4898, 4949,   85
4899,   87, 4950
4900, 4950, 4951
4901, 4951, 4952
4902, 4952, 4953
4903, 4953, 4954
4904, 4954, 4955
4905, 4955, 4956
4906, 4956, 4957
4907, 4957, 4958
4908, 4958, 4959
4909, 4959, 4960
4910, 4960, 4961
4911, 4961, 4962
4912, 4962, 4963
4913, 4963, 4964
4914, 4964, 4965
4915, 4965, 4966
4916, 4966, 4967
4917, 4967, 4968
4918, 4968, 4969
4919, 4969, 4970
4920, 4970, 4971
4921, 4971, 4972
4922, 4972, 4973
4923, 4973, 4974
4924, 4974, 4975
4925, 4975, 4976
4926, 4976, 4977
4927, 4977, 4978
4928, 4978, 4979
4929, 4979, 4980
4930, 4980, 4981
4931, 4981, 4982
4932, 4982, 4983
4933, 4983, 4984
4934, 4984, 4985
4935, 4985, 4986
4936, 4986, 4987
4937, 4987, 4988
4938, 4988, 4989
4939, 4989, 4990
4940, 4990, 4991
4941, 4991, 4992
4942, 4992, 4993
4943, 4993, 4994
4944, 4994, 4995
4945, 4995, 4996
4946, 4996, 4997
4947, 4997, 4998
4948, 4998, 4999
4949, 4999, 5000
4950, 5000, 5001
4951, 5001, 5002
4952, 5002, 5003
4953, 5003, 5004
4954, 5004, 5005
4955, 5005, 5006
4956, 5006, 5007
4957, 5007, 5008
4958, 5008, 5009
4959, 5009, 5010
4960, 5010, 5011
4961, 5011, 5012
4962, 5012, 5013
4963, 5013, 5014
4964, 5014,   86
4965,   37, 5015
4966, 5015, 5016
4967, 5016, 5017
4968, 5017, 5018
4969, 5018, 5019
4970, 5019, 5020
4971, 5020, 5021
4972, 5021, 5022
4973, 5022, 5023
4974, 5023, 5024
4975, 5024, 5025
4976, 5025, 5026
4977, 5026, 5027
4978, 5027, 5028
4979, 5028, 5029
4980, 5029, 5030
4981, 5030, 5031
4982, 5031, 5032
4983, 5032, 5033
4984, 5033, 5034
4985, 5034, 5035
4986, 5035, 5036
4987, 5036, 5037
4988, 5037, 5038
4989, 5038, 5039
4990, 5039, 5040
4991, 5040, 5041
4992, 5041, 5042
4993, 5042, 5043
4994, 5043, 5044
4995, 5044, 5045
4996, 5045, 5046
4997, 5046, 5047
4998, 5047, 5048
4999, 5048, 5049
5000, 5049, 5050
5001, 5050, 5051
5002, 5051, 5052
5003, 5052, 5053
5004, 5053, 5054
5005, 5054, 5055
5006, 5055, 5056
5007, 5056, 5057
5008, 5057, 5058
5009, 5058, 5059
5010, 5059, 5060
5011, 5060, 5061
5012, 5061, 5062
5013, 5062, 5063
5014, 5063, 5064
5015, 5064, 5065
5016, 5065, 5066
5017, 5066, 5067
5018, 5067, 5068
5019, 5068, 5069
5020, 5069, 5070
5021, 5070, 5071
5022, 5071, 5072
5023, 5072, 5073
5024, 5073, 5074
5025, 5074, 5075
5026, 5075, 5076
5027, 5076, 5077
5028, 5077, 5078
5029, 5078, 5079
5030, 5079,   87
5031,   88, 5080
5032, 5080, 5081
5033, 5081, 5082
5034, 5082, 5083
5035, 5083, 5084
5036, 5084, 5085
5037, 5085, 5086
5038, 5086, 5087
5039, 5087, 5088
5040, 5088, 5089
5041, 5089, 5090
5042, 5090, 5091
5043, 5091, 5092
5044, 5092, 5093
5045, 5093, 5094
5046, 5094, 5095
5047, 5095, 5096
5048, 5096, 5097
5049, 5097, 5098
5050, 5098, 5099
5051, 5099, 5100
5052, 5100, 5101
5053, 5101, 5102
5054, 5102, 5103
5055, 5103, 5104
5056, 5104, 5105
5057, 5105, 5106
5058, 5106, 5107
5059, 5107, 5108
5060, 5108, 5109
5061, 5109, 5110
5062, 5110, 5111
5063, 5111, 5112
5064, 5112, 5113
5065, 5113, 5114
5066, 5114, 5115
5067, 5115, 5116
5068, 5116, 5117
5069, 5117, 5118
5070, 5118, 5119
5071, 5119, 5120
5072, 5120, 5121
5073, 5121, 5122
5074, 5122, 5123
5075, 5123, 5124
5076, 5124, 5125
5077, 5125, 5126
5078, 5126, 5127
5079, 5127, 5128
5080, 5128, 5129
5081, 5129, 5130
5082, 5130, 5131
5083, 5131, 5132
5084, 5132, 5133
5085, 5133, 5134
5086, 5134, 5135
5087, 5135, 5136
5088, 5136, 5137
5089, 5137, 5138
5090, 5138, 5139
5091, 5139, 5140
5092, 5140, 5141
5093, 5141, 5142
5094, 5142, 5143
5095, 5143, 5144
5096, 5144,   37
5097,   89, 5145
5098, 5145, 5146
5099, 5146, 5147
5100, 5147, 5148
5101, 5148, 5149
5102, 5149, 5150
5103, 5150, 5151
5104, 5151, 5152
5105, 5152, 5153
5106, 5153, 5154
5107, 5154, 5155
5108, 5155, 5156
5109, 5156, 5157
5110, 5157, 5158
5111, 5158, 5159
5112, 5159, 5160
5113, 5160, 5161
5114, 5161, 5162
5115, 5162, 5163
5116, 5163, 5164
5117, 5164, 5165
5118, 5165, 5166
5119, 5166, 5167
5120, 5167, 5168
5121, 5168, 5169
5122, 5169, 5170
5123, 5170, 5171
5124, 5171, 5172
5125, 5172, 5173
5126, 5173, 5174
5127, 5174, 5175
5128, 5175, 5176
5129, 5176, 5177
5130, 5177, 5178
5131, 5178, 5179
5132, 5179, 5180
5133, 5180, 5181
5134, 5181, 5182
5135, 5182, 5183
5136, 5183, 5184
5137, 5184, 5185
5138, 5185, 5186
5139, 5186, 5187
5140, 5187, 5188
5141, 5188, 5189
5142, 5189, 5190
5143, 5190, 5191
5144, 5191, 5192
5145, 5192, 5193
5146, 5193, 5194
5147, 5194, 5195
5148, 5195, 5196
5149, 5196, 5197
5150, 5197, 5198
5151, 5198, 5199
5152, 5199, 5200
5153, 5200, 5201
5154, 5201, 5202
5155, 5202, 5203
5156, 5203, 5204
5157, 5204, 5205
5158, 5205, 5206
5159, 5206, 5207
5160, 5207, 5208
5161, 5208, 5209
5162, 5209,   88
5163,   90, 5210
5164, 5210, 5211
5165, 5211, 5212
5166, 5212, 5213
5167, 5213, 5214
5168, 5214, 5215
5169, 5215, 5216
5170, 5216, 5217
5171, 5217, 5218
5172, 5218, 5219
5173, 5219, 5220
5174, 5220, 5221
5175, 5221, 5222
5176, 5222, 5223
5177, 5223, 5224
5178, 5224, 5225
5179, 5225, 5226
5180, 5226, 5227
5181, 5227, 5228
5182, 5228, 5229
5183, 5229, 5230
5184, 5230, 5231
5185, 5231, 5232
5186, 5232, 5233
5187, 5233, 5234
5188, 5234, 5235
5189, 5235, 5236
5190, 5236, 5237
5191, 5237, 5238
5192, 5238, 5239
5193, 5239, 5240
5194, 5240, 5241
5195, 5241, 5242
5196, 5242, 5243
5197, 5243, 5244
5198, 5244, 5245
5199, 5245, 5246
5200, 5246, 5247
5201, 5247, 5248
5202, 5248, 5249
5203, 5249, 5250
5204, 5250, 5251
5205, 5251, 5252
5206, 5252, 5253
5207, 5253, 5254
5208, 5254, 5255
5209, 5255, 5256
5210, 5256, 5257
5211, 5257, 5258
5212, 5258, 5259
5213, 5259, 5260
5214, 5260, 5261
5215, 5261, 5262
5216, 5262, 5263
5217, 5263, 5264
5218, 5264, 5265
5219, 5265, 5266
5220, 5266, 5267
5221, 5267, 5268
5222, 5268, 5269
5223, 5269, 5270
5224, 5270, 5271
5225, 5271, 5272
5226, 5272, 5273
5227, 5273, 5274
5228, 5274,   89
5229,   91, 5275
5230, 5275, 5276
5231, 5276, 5277
5232, 5277, 5278
5233, 5278, 5279
5234, 5279, 5280
5235, 5280, 5281
5236, 5281, 5282
5237, 5282, 5283
5238, 5283, 5284
5239, 5284, 5285
5240, 5285, 5286
5241, 5286, 5287
5242, 5287, 5288
5243, 5288, 5289
5244, 5289, 5290
5245, 5290, 5291
5246, 5291, 5292
5247, 5292, 5293
5248, 5293, 5294
5249, 5294, 5295
5250, 5295, 5296
5251, 5296, 5297
5252, 5297, 5298
5253, 5298, 5299
5254, 5299, 5300
5255, 5300, 5301
5256, 5301, 5302
5257, 5302, 5303
5258, 5303, 5304
5259, 5304, 5305
5260, 5305, 5306
5261, 5306, 5307
5262, 5307, 5308
5263, 5308, 5309
5264, 5309, 5310
5265, 5310, 5311
5266, 5311, 5312
5267, 5312, 5313
5268, 5313, 5314
5269, 5314, 5315
5270, 5315, 5316
5271, 5316, 5317
5272, 5317, 5318
5273, 5318, 5319
5274, 5319, 5320
5275, 5320, 5321
5276, 5321, 5322
5277, 5322, 5323
5278, 5323, 5324
5279, 5324, 5325
5280, 5325, 5326
5281, 5326, 5327
5282, 5327, 5328
5283, 5328, 5329
5284, 5329, 5330
5285, 5330, 5331
5286, 5331, 5332
5287, 5332, 5333
5288, 5333, 5334
5289, 5334, 5335
5290, 5335, 5336
5291, 5336, 5337
5292, 5337, 5338
5293, 5338, 5339
5294, 5339,   90
5295,   92, 5340
5296, 5340, 5341
5297, 5341, 5342
5298, 5342, 5343
5299, 5343, 5344
5300, 5344, 5345
5301, 5345, 5346
5302, 5346, 5347
5303, 5347, 5348
5304, 5348, 5349
5305, 5349, 5350
5306, 5350, 5351
5307, 5351, 5352
5308, 5352, 5353
5309, 5353, 5354
5310, 5354, 5355
5311, 5355, 5356
5312, 5356, 5357
5313, 5357, 5358
5314, 5358, 5359
5315, 5359, 5360
5316, 5360, 5361
5317, 5361, 5362
5318, 5362, 5363
5319, 5363, 5364
5320, 5364, 5365
5321, 5365, 5366
5322, 5366, 5367
5323, 5367, 5368
5324, 5368, 5369
5325, 5369, 5370
5326, 5370, 5371
5327, 5371, 5372
5328, 5372, 5373
5329, 5373, 5374
5330, 5374, 5375
5331, 5375, 5376
5332, 5376, 5377
5333, 5377, 5378
5334, 5378, 5379
5335, 5379, 5380
5336, 5380, 5381
5337, 5381, 5382
5338, 5382, 5383
5339, 5383, 5384
5340, 5384, 5385
5341, 5385, 5386
5342, 5386, 5387
5343, 5387, 5388
5344, 5388, 5389
5345, 5389, 5390
5346, 5390, 5391
5347, 5391, 5392
5348, 5392, 5393
5349, 5393, 5394
5350, 5394, 5395
5351, 5395, 5396
5352, 5396, 5397
5353, 5397, 5398
5354, 5398, 5399
5355, 5399, 5400
5356, 5400, 5401
5357, 5401, 5402
5358, 5402, 5403
5359, 5403, 5404
5360, 5404,   91
5361,   44, 5405
5362, 5405, 5406
5363, 5406, 5407
5364, 5407, 5408
5365, 5408, 5409
5366, 5409, 5410
5367, 5410, 5411
5368, 5411, 5412
5369, 5412, 5413
5370, 5413, 5414
5371, 5414, 5415
5372, 5415, 5416
5373, 5416, 5417
5374, 5417, 5418
5375, 5418, 5419
5376, 5419, 5420
5377, 5420, 5421
5378, 5421, 5422
5379, 5422, 5423
5380, 5423, 5424
5381, 5424, 5425
5382, 5425, 5426
5383, 5426, 5427
5384, 5427, 5428
5385, 5428, 5429
5386, 5429, 5430
5387, 5430, 5431
5388, 5431, 5432
5389, 5432, 5433
5390, 5433, 5434
5391, 5434, 5435
5392, 5435, 5436
5393, 5436,   92
5394,   93, 5437
5395, 5437, 5438
5396, 5438, 5439
5397, 5439, 5440
5398, 5440, 5441
5399, 5441, 5442
5400, 5442, 5443
5401, 5443, 5444
5402, 5444, 5445
5403, 5445, 5446
5404, 5446, 5447
5405, 5447, 5448
5406, 5448, 5449
5407, 5449, 5450
5408, 5450, 5451
5409, 5451, 5452
5410, 5452, 5453
5411, 5453, 5454
5412, 5454, 5455
5413, 5455, 5456
5414, 5456, 5457
5415, 5457, 5458
5416, 5458, 5459
5417, 5459, 5460
5418, 5460, 5461
5419, 5461, 5462
5420, 5462, 5463
5421, 5463, 5464
5422, 5464, 5465
5423, 5465, 5466
5424, 5466, 5467
5425, 5467, 5468
5426, 5468,   44
5427,   94, 5469
5428, 5469, 5470
5429, 5470, 5471
5430, 5471, 5472
5431, 5472, 5473
5432, 5473, 5474
5433, 5474, 5475
5434, 5475, 5476
5435, 5476, 5477
5436, 5477, 5478
5437, 5478, 5479
5438, 5479, 5480
5439, 5480, 5481
5440, 5481, 5482
5441, 5482, 5483
5442, 5483, 5484
5443, 5484, 5485
5444, 5485, 5486
5445, 5486, 5487
5446, 5487, 5488
5447, 5488, 5489
5448, 5489, 5490
5449, 5490, 5491
5450, 5491, 5492
5451, 5492, 5493
5452, 5493, 5494
5453, 5494, 5495
5454, 5495, 5496
5455, 5496, 5497
5456, 5497, 5498
5457, 5498, 5499
5458, 5499, 5500
5459, 5500, 5501
5460, 5501, 5502
5461, 5502, 5503
5462, 5503, 5504
5463, 5504, 5505
5464, 5505, 5506
5465, 5506, 5507
5466, 5507, 5508
5467, 5508, 5509
5468, 5509, 5510
5469, 5510, 5511
5470, 5511, 5512
5471, 5512, 5513
5472, 5513, 5514
5473, 5514, 5515
5474, 5515, 5516
5475, 5516, 5517
5476, 5517, 5518
5477, 5518, 5519
5478, 5519, 5520
5479, 5520, 5521
5480, 5521, 5522
5481, 5522, 5523
5482, 5523, 5524
5483, 5524, 5525
5484, 5525, 5526
5485, 5526, 5527
5486, 5527, 5528
5487, 5528, 5529
5488, 5529, 5530
5489, 5530, 5531
5490, 5531, 5532
5491, 5532, 5533
5492, 5533,   93
5493,   95, 5534
5494, 5534, 5535
5495, 5535, 5536
5496, 5536, 5537
5497, 5537, 5538
5498, 5538, 5539
5499, 5539, 5540
5500, 5540, 5541
5501, 5541, 5542
5502, 5542, 5543
5503, 5543, 5544
5504, 5544, 5545
5505, 5545, 5546
5506, 5546, 5547
5507, 5547, 5548
5508, 5548, 5549
5509, 5549, 5550
5510, 5550, 5551
5511, 5551, 5552
5512, 5552, 5553
5513, 5553, 5554
5514, 5554, 5555
5515, 5555, 5556
5516, 5556, 5557
5517, 5557, 5558
5518, 5558, 5559
5519, 5559, 5560
5520, 5560, 5561
5521, 5561, 5562
5522, 5562, 5563
5523, 5563, 5564
5524, 5564, 5565
5525, 5565, 5566
5526, 5566, 5567
5527, 5567, 5568
5528, 5568, 5569
5529, 5569, 5570
5530, 5570, 5571
5531, 5571, 5572
5532, 5572, 5573
5533, 5573, 5574
5534, 5574, 5575
5535, 5575, 5576
5536, 5576, 5577
5537, 5577, 5578
5538, 5578, 5579
5539, 5579, 5580
5540, 5580, 5581
5541, 5581, 5582
5542, 5582, 5583
5543, 5583, 5584
5544, 5584, 5585
5545, 5585, 5586
5546, 5586, 5587
5547, 5587, 5588
5548, 5588, 5589
5549, 5589, 5590
5550, 5590, 5591
5551, 5591, 5592
5552, 5592, 5593
5553, 5593, 5594
5554, 5594, 5595
5555, 5595, 5596
5556, 5596, 5597
5557, 5597, 5598
5558, 5598,   94
5559,   96, 5599
5560, 5599, 5600
5561, 5600, 5601
5562, 5601, 5602
5563, 5602, 5603
5564, 5603, 5604
5565, 5604, 5605
5566, 5605, 5606
5567, 5606, 5607
5568, 5607, 5608
5569, 5608, 5609
5570, 5609, 5610
5571, 5610, 5611
5572, 5611, 5612
5573, 5612, 5613
5574, 5613, 5614
5575, 5614, 5615
5576, 5615, 5616
5577, 5616, 5617
5578, 5617, 5618
5579, 5618, 5619
5580, 5619, 5620
5581, 5620, 5621
5582, 5621, 5622
5583, 5622, 5623
5584, 5623, 5624
5585, 5624, 5625
5586, 5625, 5626
5587, 5626, 5627
5588, 5627, 5628
5589, 5628, 5629
5590, 5629, 5630
5591, 5630, 5631
5592, 5631, 5632
5593, 5632, 5633
5594, 5633, 5634
5595, 5634, 5635
5596, 5635, 5636
5597, 5636, 5637
5598, 5637, 5638
5599, 5638, 5639
5600, 5639, 5640
5601, 5640, 5641
5602, 5641, 5642
5603, 5642, 5643
5604, 5643, 5644
5605, 5644, 5645
5606, 5645, 5646
5607, 5646, 5647
5608, 5647, 5648
5609, 5648, 5649
5610, 5649, 5650
5611, 5650, 5651
5612, 5651, 5652
5613, 5652, 5653
5614, 5653, 5654
5615, 5654, 5655
5616, 5655, 5656
5617, 5656, 5657
5618, 5657, 5658
5619, 5658, 5659
5620, 5659, 5660
5621, 5660, 5661
5622, 5661, 5662
5623, 5662, 5663
5624, 5663,   95
5625,   97, 5664
5626, 5664, 5665
5627, 5665, 5666
5628, 5666, 5667
5629, 5667, 5668
5630, 5668, 5669
5631, 5669, 5670
5632, 5670, 5671
5633, 5671, 5672
5634, 5672, 5673
5635, 5673, 5674
5636, 5674, 5675
5637, 5675, 5676
5638, 5676, 5677
5639, 5677, 5678
5640, 5678, 5679
5641, 5679, 5680
5642, 5680, 5681
5643, 5681, 5682
5644, 5682, 5683
5645, 5683, 5684
5646, 5684, 5685
5647, 5685, 5686
5648, 5686, 5687
5649, 5687, 5688
5650, 5688, 5689
5651, 5689, 5690
5652, 5690, 5691
5653, 5691, 5692
5654, 5692, 5693
5655, 5693, 5694
5656, 5694, 5695
5657, 5695, 5696
5658, 5696, 5697
5659, 5697, 5698
5660, 5698, 5699
5661, 5699, 5700
5662, 5700, 5701
5663, 5701, 5702
5664, 5702, 5703
5665, 5703, 5704
5666, 5704, 5705
5667, 5705, 5706
5668, 5706, 5707
5669, 5707, 5708
5670, 5708, 5709
5671, 5709, 5710
5672, 5710, 5711
5673, 5711, 5712
5674, 5712, 5713
5675, 5713, 5714
5676, 5714, 5715
5677, 5715, 5716
5678, 5716, 5717
5679, 5717, 5718
5680, 5718, 5719
5681, 5719, 5720
5682, 5720, 5721
5683, 5721, 5722
5684, 5722, 5723
5685, 5723, 5724
5686, 5724, 5725
5687, 5725, 5726
5688, 5726, 5727
5689, 5727, 5728
5690, 5728,   96
5691,   51, 5729
5692, 5729, 5730
5693, 5730, 5731
5694, 5731, 5732
5695, 5732, 5733
5696, 5733, 5734
5697, 5734, 5735
5698, 5735, 5736
5699, 5736, 5737
5700, 5737, 5738
5701, 5738, 5739
5702, 5739, 5740
5703, 5740, 5741
5704, 5741, 5742
5705, 5742, 5743
5706, 5743, 5744
5707, 5744, 5745
5708, 5745, 5746
5709, 5746, 5747
5710, 5747, 5748
5711, 5748, 5749
5712, 5749, 5750
5713, 5750, 5751
5714, 5751, 5752
5715, 5752, 5753
5716, 5753, 5754
5717, 5754, 5755
5718, 5755, 5756
5719, 5756, 5757
5720, 5757, 5758
5721, 5758, 5759
5722, 5759, 5760
5723, 5760, 5761
5724, 5761, 5762
5725, 5762, 5763
5726, 5763, 5764
5727, 5764, 5765
5728, 5765, 5766
5729, 5766, 5767
5730, 5767, 5768
5731, 5768, 5769
5732, 5769, 5770
5733, 5770, 5771
5734, 5771, 5772
5735, 5772, 5773
5736, 5773, 5774
5737, 5774, 5775
5738, 5775, 5776
5739, 5776, 5777
5740, 5777, 5778
5741, 5778, 5779
5742, 5779, 5780
5743, 5780, 5781
5744, 5781, 5782
5745, 5782, 5783
5746, 5783, 5784
5747, 5784, 5785
5748, 5785, 5786
5749, 5786, 5787
5750, 5787, 5788
5751, 5788, 5789
5752, 5789, 5790
5753, 5790, 5791
5754, 5791, 5792
5755, 5792, 5793
5756, 5793,   97
5757,   98, 5794
5758, 5794, 5795
5759, 5795, 5796
5760, 5796, 5797
5761, 5797, 5798
5762, 5798, 5799
5763, 5799, 5800
5764, 5800, 5801
5765, 5801, 5802
5766, 5802, 5803
5767, 5803, 5804
5768, 5804, 5805
5769, 5805, 5806
5770, 5806, 5807
5771, 5807, 5808
5772, 5808, 5809
5773, 5809, 5810
5774, 5810, 5811
5775, 5811, 5812
5776, 5812, 5813
5777, 5813, 5814
5778, 5814, 5815
5779, 5815, 5816
5780, 5816, 5817
5781, 5817, 5818
5782, 5818, 5819
5783, 5819, 5820
5784, 5820, 5821
5785, 5821, 5822
5786, 5822, 5823
5787, 5823, 5824
5788, 5824, 5825
5789, 5825, 5826
5790, 5826, 5827
5791, 5827, 5828
5792, 5828, 5829
5793, 5829, 5830
5794, 5830, 5831
5795, 5831, 5832
5796, 5832, 5833
5797, 5833, 5834
5798, 5834, 5835
5799, 5835, 5836
5800, 5836, 5837
5801, 5837, 5838
5802, 5838, 5839
5803, 5839, 5840
5804, 5840, 5841
5805, 5841, 5842
5806, 5842, 5843
5807, 5843, 5844
5808, 5844, 5845
5809, 5845, 5846
5810, 5846, 5847
5811, 5847, 5848
5812, 5848, 5849
5813, 5849, 5850
5814, 5850, 5851
5815, 5851, 5852
5816, 5852, 5853
5817, 5853, 5854
5818, 5854, 5855
5819, 5855, 5856
5820, 5856, 5857
5821, 5857, 5858
5822, 5858,   51
5823,   99, 5859
5824, 5859, 5860
5825, 5860, 5861
5826, 5861, 5862
5827, 5862, 5863
5828, 5863, 5864
5829, 5864, 5865
5830, 5865, 5866
5831, 5866, 5867
5832, 5867, 5868
5833, 5868, 5869
5834, 5869, 5870
5835, 5870, 5871
5836, 5871, 5872
5837, 5872, 5873
5838, 5873, 5874
5839, 5874, 5875
5840, 5875, 5876
5841, 5876, 5877
5842, 5877, 5878
5843, 5878, 5879
5844, 5879, 5880
5845, 5880, 5881
5846, 5881, 5882
5847, 5882, 5883
5848, 5883, 5884
5849, 5884, 5885
5850, 5885, 5886
5851, 5886, 5887
5852, 5887, 5888
5853, 5888, 5889
5854, 5889, 5890
5855, 5890, 5891
5856, 5891, 5892
5857, 5892, 5893
5858, 5893, 5894
5859, 5894, 5895
5860, 5895, 5896
5861, 5896, 5897
5862, 5897, 5898
5863, 5898, 5899
5864, 5899, 5900
5865, 5900, 5901
5866, 5901, 5902
5867, 5902, 5903
5868, 5903, 5904
5869, 5904, 5905
5870, 5905, 5906
5871, 5906, 5907
5872, 5907, 5908
5873, 5908, 5909
5874, 5909, 5910
5875, 5910, 5911
5876, 5911, 5912
5877, 5912, 5913
5878, 5913, 5914
5879, 5914, 5915
5880, 5915, 5916
5881, 5916, 5917
5882, 5917, 5918
5883, 5918, 5919
5884, 5919, 5920
5885, 5920, 5921
5886, 5921, 5922
5887, 5922, 5923
5888, 5923,   98
5889,  100, 5924
5890, 5924, 5925
5891, 5925, 5926
5892, 5926, 5927
5893, 5927, 5928
5894, 5928, 5929
5895, 5929, 5930
5896, 5930, 5931
5897, 5931, 5932
5898, 5932, 5933
5899, 5933, 5934
5900, 5934, 5935
5901, 5935, 5936
5902, 5936, 5937
5903, 5937, 5938
5904, 5938, 5939
5905, 5939, 5940
5906, 5940, 5941
5907, 5941, 5942
5908, 5942, 5943
5909, 5943, 5944
5910, 5944, 5945
5911, 5945, 5946
5912, 5946, 5947
5913, 5947, 5948
5914, 5948, 5949
5915, 5949, 5950
5916, 5950, 5951
5917, 5951, 5952
5918, 5952, 5953
5919, 5953, 5954
5920, 5954, 5955
5921, 5955, 5956
5922, 5956, 5957
5923, 5957, 5958
5924, 5958, 5959
5925, 5959, 5960
5926, 5960, 5961
5927, 5961, 5962
5928, 5962, 5963
5929, 5963, 5964
5930, 5964, 5965
5931, 5965, 5966
5932, 5966, 5967
5933, 5967, 5968
5934, 5968, 5969
5935, 5969, 5970
5936, 5970, 5971
5937, 5971, 5972
5938, 5972, 5973
5939, 5973, 5974
5940, 5974, 5975
5941, 5975, 5976
5942, 5976, 5977
5943, 5977, 5978
5944, 5978, 5979
5945, 5979, 5980
5946, 5980, 5981
5947, 5981, 5982
5948, 5982, 5983
5949, 5983, 5984
5950, 5984, 5985
5951, 5985, 5986
5952, 5986, 5987
5953, 5987, 5988
5954, 5988,   99
5955,  101, 5989
5956, 5989, 5990
5957, 5990, 5991
5958, 5991, 5992
5959, 5992, 5993
5960, 5993, 5994
5961, 5994, 5995
5962, 5995, 5996
5963, 5996, 5997
5964, 5997, 5998
5965, 5998, 5999
5966, 5999, 6000
5967, 6000, 6001
5968, 6001, 6002
5969, 6002, 6003
5970, 6003, 6004
5971, 6004, 6005
5972, 6005, 6006
5973, 6006, 6007
5974, 6007, 6008
5975, 6008, 6009
5976, 6009, 6010
5977, 6010, 6011
5978, 6011, 6012
5979, 6012, 6013
5980, 6013, 6014
5981, 6014, 6015
5982, 6015, 6016
5983, 6016, 6017
5984, 6017, 6018
5985, 6018, 6019
5986, 6019, 6020
5987, 6020, 6021
5988, 6021, 6022
5989, 6022, 6023
5990, 6023, 6024
5991, 6024, 6025
5992, 6025, 6026
5993, 6026, 6027
5994, 6027, 6028
5995, 6028, 6029
5996, 6029, 6030
5997, 6030, 6031
5998, 6031, 6032
5999, 6032, 6033
6000, 6033, 6034
6001, 6034, 6035
6002, 6035, 6036
6003, 6036, 6037
6004, 6037, 6038
6005, 6038, 6039
6006, 6039, 6040
6007, 6040, 6041
6008, 6041, 6042
6009, 6042, 6043
6010, 6043, 6044
6011, 6044, 6045
6012, 6045, 6046
6013, 6046, 6047
6014, 6047, 6048
6015, 6048, 6049
6016, 6049, 6050
6017, 6050, 6051
6018, 6051, 6052
6019, 6052, 6053
6020, 6053,  100
6021,  102, 6054
6022, 6054, 6055
6023, 6055, 6056
6024, 6056, 6057
6025, 6057, 6058
6026, 6058, 6059
6027, 6059, 6060
6028, 6060, 6061
6029, 6061, 6062
6030, 6062, 6063
6031, 6063, 6064
6032, 6064, 6065
6033, 6065, 6066
6034, 6066, 6067
6035, 6067, 6068
6036, 6068, 6069
6037, 6069, 6070
6038, 6070, 6071
6039, 6071, 6072
6040, 6072, 6073
6041, 6073, 6074
6042, 6074, 6075
6043, 6075, 6076
6044, 6076, 6077
6045, 6077, 6078
6046, 6078, 6079
6047, 6079, 6080
6048, 6080, 6081
6049, 6081, 6082
6050, 6082, 6083
6051, 6083, 6084
6052, 6084, 6085
6053, 6085, 6086
6054, 6086, 6087
6055, 6087, 6088
6056, 6088, 6089
6057, 6089, 6090
6058, 6090, 6091
6059, 6091, 6092
6060, 6092, 6093
6061, 6093, 6094
6062, 6094, 6095
6063, 6095, 6096
6064, 6096, 6097
6065, 6097, 6098
6066, 6098, 6099
6067, 6099, 6100
6068, 6100, 6101
6069, 6101, 6102
6070, 6102, 6103
6071, 6103, 6104
6072, 6104, 6105
6073, 6105, 6106
6074, 6106, 6107
6075, 6107, 6108
6076, 6108, 6109
6077, 6109, 6110
6078, 6110, 6111
6079, 6111, 6112
6080, 6112, 6113
6081, 6113, 6114
6082, 6114, 6115
6083, 6115, 6116
6084, 6116, 6117
6085, 6117, 6118
6086, 6118,  101
6087,   57, 6119
6088, 6119, 6120
6089, 6120, 6121
6090, 6121, 6122
6091, 6122, 6123
6092, 6123, 6124
6093, 6124, 6125
6094, 6125, 6126
6095, 6126, 6127
6096, 6127, 6128
6097, 6128, 6129
6098, 6129, 6130
6099, 6130, 6131
6100, 6131, 6132
6101, 6132, 6133
6102, 6133, 6134
6103, 6134, 6135
6104, 6135, 6136
6105, 6136, 6137
6106, 6137, 6138
6107, 6138, 6139
6108, 6139, 6140
6109, 6140, 6141
6110, 6141, 6142
6111, 6142, 6143
6112, 6143, 6144
6113, 6144, 6145
6114, 6145, 6146
6115, 6146, 6147
6116, 6147, 6148
6117, 6148, 6149
6118, 6149, 6150
6119, 6150,  102
6120,  103, 6151
6121, 6151, 6152
6122, 6152, 6153
6123, 6153, 6154
6124, 6154, 6155
6125, 6155, 6156
6126, 6156, 6157
6127, 6157, 6158
6128, 6158, 6159
6129, 6159,   31
6130,  104, 6160
6131, 6160, 6161
6132, 6161, 6162
6133, 6162, 6163
6134, 6163, 6164
6135, 6164, 6165
6136, 6165, 6166
6137, 6166, 6167
6138, 6167, 6168
6139, 6168, 6169
6140, 6169, 6170
6141, 6170, 6171
6142, 6171, 6172
6143, 6172, 6173
6144, 6173, 6174
6145, 6174, 6175
6146, 6175, 6176
6147, 6176, 6177
6148, 6177, 6178
6149, 6178, 6179
6150, 6179, 6180
6151, 6180, 6181
6152, 6181, 6182
6153, 6182, 6183
6154, 6183, 6184
6155, 6184, 6185
6156, 6185, 6186
6157, 6186, 6187
6158, 6187, 6188
6159, 6188, 6189
6160, 6189, 6190
6161, 6190, 6191
6162, 6191, 6192
6163, 6192, 6193
6164, 6193, 6194
6165, 6194, 6195
6166, 6195, 6196
6167, 6196, 6197
6168, 6197, 6198
6169, 6198, 6199
6170, 6199, 6200
6171, 6200, 6201
6172, 6201, 6202
6173, 6202, 6203
6174, 6203, 6204
6175, 6204, 6205
6176, 6205, 6206
6177, 6206, 6207
6178, 6207, 6208
6179, 6208, 6209
6180, 6209, 6210
6181, 6210, 6211
6182, 6211, 6212
6183, 6212, 6213
6184, 6213, 6214
6185, 6214, 6215
6186, 6215, 6216
6187, 6216, 6217
6188, 6217, 6218
6189, 6218, 6219
6190, 6219, 6220
6191, 6220, 6221
6192, 6221, 6222
6193, 6222, 6223
6194, 6223, 6224
6195, 6224, 6225
6196, 6225, 6226
6197, 6226, 6227
6198, 6227, 6228
6199, 6228, 6229
6200, 6229, 6230
6201, 6230, 6231
6202, 6231, 6232
6203, 6232,  103
6204,  105, 6233
6205, 6233, 6234
6206, 6234, 6235
6207, 6235, 6236
6208, 6236, 6237
6209, 6237, 6238
6210, 6238, 6239
6211, 6239, 6240
6212, 6240, 6241
6213, 6241, 6242
6214, 6242, 6243
6215, 6243, 6244
6216, 6244, 6245
6217, 6245, 6246
6218, 6246, 6247
6219, 6247, 6248
6220, 6248, 6249
6221, 6249, 6250
6222, 6250, 6251
6223, 6251, 6252
6224, 6252, 6253
6225, 6253, 6254
6226, 6254, 6255
6227, 6255, 6256
6228, 6256, 6257
6229, 6257, 6258
6230, 6258, 6259
6231, 6259, 6260
6232, 6260, 6261
6233, 6261, 6262
6234, 6262, 6263
6235, 6263, 6264
6236, 6264,   32
6237,  106, 6265
6238, 6265, 6266
6239, 6266, 6267
6240, 6267, 6268
6241, 6268, 6269
6242, 6269, 6270
6243, 6270, 6271
6244, 6271, 6272
6245, 6272, 6273
6246, 6273, 6274
6247, 6274, 6275
6248, 6275, 6276
6249, 6276, 6277
6250, 6277, 6278
6251, 6278, 6279
6252, 6279, 6280
6253, 6280, 6281
6254, 6281, 6282
6255, 6282, 6283
6256, 6283, 6284
6257, 6284, 6285
6258, 6285, 6286
6259, 6286, 6287
6260, 6287, 6288
6261, 6288, 6289
6262, 6289, 6290
6263, 6290, 6291
6264, 6291, 6292
6265, 6292, 6293
6266, 6293, 6294
6267, 6294, 6295
6268, 6295, 6296
6269, 6296, 6297
6270, 6297, 6298
6271, 6298, 6299
6272, 6299, 6300
6273, 6300, 6301
6274, 6301, 6302
6275, 6302, 6303
6276, 6303, 6304
6277, 6304, 6305
6278, 6305, 6306
6279, 6306, 6307
6280, 6307, 6308
6281, 6308, 6309
6282, 6309, 6310
6283, 6310, 6311
6284, 6311, 6312
6285, 6312, 6313
6286, 6313, 6314
6287, 6314, 6315
6288, 6315, 6316
6289, 6316, 6317
6290, 6317, 6318
6291, 6318, 6319
6292, 6319, 6320
6293, 6320, 6321
6294, 6321, 6322
6295, 6322, 6323
6296, 6323, 6324
6297, 6324, 6325
6298, 6325, 6326
6299, 6326, 6327
6300, 6327, 6328
6301, 6328, 6329
6302, 6329,  105
6303,  107, 6330
6304, 6330, 6331
6305, 6331, 6332
6306, 6332, 6333
6307, 6333, 6334
6308, 6334, 6335
6309, 6335, 6336
6310, 6336, 6337
6311, 6337, 6338
6312, 6338, 6339
6313, 6339, 6340
6314, 6340, 6341
6315, 6341, 6342
6316, 6342, 6343
6317, 6343, 6344
6318, 6344, 6345
6319, 6345, 6346
6320, 6346, 6347
6321, 6347, 6348
6322, 6348, 6349
6323, 6349, 6350
6324, 6350, 6351
6325, 6351, 6352
6326, 6352, 6353
6327, 6353, 6354
6328, 6354, 6355
6329, 6355, 6356
6330, 6356, 6357
6331, 6357, 6358
6332, 6358, 6359
6333, 6359, 6360
6334, 6360, 6361
6335, 6361, 6362
6336, 6362, 6363
6337, 6363, 6364
6338, 6364, 6365
6339, 6365, 6366
6340, 6366, 6367
6341, 6367, 6368
6342, 6368, 6369
6343, 6369, 6370
6344, 6370, 6371
6345, 6371, 6372
6346, 6372, 6373
6347, 6373, 6374
6348, 6374, 6375
6349, 6375, 6376
6350, 6376, 6377
6351, 6377, 6378
6352, 6378, 6379
6353, 6379, 6380
6354, 6380, 6381
6355, 6381, 6382
6356, 6382, 6383
6357, 6383, 6384
6358, 6384, 6385
6359, 6385, 6386
6360, 6386, 6387
6361, 6387, 6388
6362, 6388, 6389
6363, 6389, 6390
6364, 6390, 6391
6365, 6391, 6392
6366, 6392, 6393
6367, 6393, 6394
6368, 6394,  106
6369,  108, 6395
6370, 6395, 6396
6371, 6396, 6397
6372, 6397, 6398
6373, 6398, 6399
6374, 6399, 6400
6375, 6400, 6401
6376, 6401, 6402
6377, 6402, 6403
6378, 6403, 6404
6379, 6404, 6405
6380, 6405, 6406
6381, 6406, 6407
6382, 6407, 6408
6383, 6408, 6409
6384, 6409, 6410
6385, 6410, 6411
6386, 6411, 6412
6387, 6412, 6413
6388, 6413, 6414
6389, 6414, 6415
6390, 6415, 6416
6391, 6416, 6417
6392, 6417, 6418
6393, 6418, 6419
6394, 6419, 6420
6395, 6420, 6421
6396, 6421, 6422
6397, 6422, 6423
6398, 6423, 6424
6399, 6424, 6425
6400, 6425, 6426
6401, 6426, 6427
6402, 6427, 6428
6403, 6428, 6429
6404, 6429, 6430
6405, 6430, 6431
6406, 6431, 6432
6407, 6432, 6433
6408, 6433, 6434
6409, 6434, 6435
6410, 6435, 6436
6411, 6436, 6437
6412, 6437, 6438
6413, 6438, 6439
6414, 6439, 6440
6415, 6440, 6441
6416, 6441, 6442
6417, 6442, 6443
6418, 6443, 6444
6419, 6444, 6445
6420, 6445, 6446
6421, 6446, 6447
6422, 6447, 6448
6423, 6448, 6449
6424, 6449, 6450
6425, 6450, 6451
6426, 6451, 6452
6427, 6452, 6453
6428, 6453, 6454
6429, 6454, 6455
6430, 6455, 6456
6431, 6456, 6457
6432, 6457, 6458
6433, 6458, 6459
6434, 6459,  107
6435,  109, 6460
6436, 6460, 6461
6437, 6461, 6462
6438, 6462, 6463
6439, 6463, 6464
6440, 6464, 6465
6441, 6465, 6466
6442, 6466, 6467
6443, 6467, 6468
6444, 6468, 6469
6445, 6469, 6470
6446, 6470, 6471
6447, 6471, 6472
6448, 6472, 6473
6449, 6473, 6474
6450, 6474, 6475
6451, 6475, 6476
6452, 6476, 6477
6453, 6477, 6478
6454, 6478, 6479
6455, 6479, 6480
6456, 6480, 6481
6457, 6481, 6482
6458, 6482, 6483
6459, 6483, 6484
6460, 6484, 6485
6461, 6485, 6486
6462, 6486, 6487
6463, 6487, 6488
6464, 6488, 6489
6465, 6489, 6490
6466, 6490, 6491
6467, 6491, 6492
6468, 6492, 6493
6469, 6493, 6494
6470, 6494, 6495
6471, 6495, 6496
6472, 6496, 6497
6473, 6497, 6498
6474, 6498, 6499
6475, 6499, 6500
6476, 6500, 6501
6477, 6501, 6502
6478, 6502, 6503
6479, 6503, 6504
6480, 6504, 6505
6481, 6505, 6506
6482, 6506, 6507
6483, 6507, 6508
6484, 6508, 6509
6485, 6509, 6510
6486, 6510, 6511
6487, 6511, 6512
6488, 6512, 6513
6489, 6513, 6514
6490, 6514, 6515
6491, 6515, 6516
6492, 6516, 6517
6493, 6517, 6518
6494, 6518, 6519
6495, 6519, 6520
6496, 6520, 6521
6497, 6521, 6522
6498, 6522, 6523
6499, 6523, 6524
6500, 6524,  108
6501,   39, 6525
6502, 6525, 6526
6503, 6526, 6527
6504, 6527, 6528
6505, 6528, 6529
6506, 6529, 6530
6507, 6530, 6531
6508, 6531, 6532
6509, 6532, 6533
6510, 6533, 6534
6511, 6534, 6535
6512, 6535, 6536
6513, 6536, 6537
6514, 6537, 6538
6515, 6538, 6539
6516, 6539, 6540
6517, 6540, 6541
6518, 6541, 6542
6519, 6542, 6543
6520, 6543, 6544
6521, 6544, 6545
6522, 6545, 6546
6523, 6546, 6547
6524, 6547, 6548
6525, 6548, 6549
6526, 6549, 6550
6527, 6550, 6551
6528, 6551, 6552
6529, 6552, 6553
6530, 6553, 6554
6531, 6554, 6555
6532, 6555, 6556
6533, 6556, 6557
6534, 6557, 6558
6535, 6558, 6559
6536, 6559, 6560
6537, 6560, 6561
6538, 6561, 6562
6539, 6562, 6563
6540, 6563, 6564
6541, 6564, 6565
6542, 6565, 6566
6543, 6566, 6567
6544, 6567, 6568
6545, 6568, 6569
6546, 6569, 6570
6547, 6570, 6571
6548, 6571, 6572
6549, 6572, 6573
6550, 6573, 6574
6551, 6574, 6575
6552, 6575, 6576
6553, 6576, 6577
6554, 6577, 6578
6555, 6578, 6579
6556, 6579, 6580
6557, 6580, 6581
6558, 6581, 6582
6559, 6582, 6583
6560, 6583, 6584
6561, 6584, 6585
6562, 6585, 6586
6563, 6586, 6587
6564, 6587, 6588
6565, 6588, 6589
6566, 6589,  109
6567,  110, 6590
6568, 6590, 6591
6569, 6591, 6592
6570, 6592, 6593
6571, 6593, 6594
6572, 6594, 6595
6573, 6595, 6596
6574, 6596, 6597
6575, 6597, 6598
6576, 6598, 6599
6577, 6599, 6600
6578, 6600, 6601
6579, 6601, 6602
6580, 6602, 6603
6581, 6603, 6604
6582, 6604, 6605
6583, 6605, 6606
6584, 6606, 6607
6585, 6607, 6608
6586, 6608, 6609
6587, 6609, 6610
6588, 6610, 6611
6589, 6611, 6612
6590, 6612, 6613
6591, 6613, 6614
6592, 6614, 6615
6593, 6615, 6616
6594, 6616, 6617
6595, 6617, 6618
6596, 6618, 6619
6597, 6619, 6620
6598, 6620, 6621
6599, 6621, 6622
6600, 6622, 6623
6601, 6623, 6624
6602, 6624, 6625
6603, 6625, 6626
6604, 6626, 6627
6605, 6627, 6628
6606, 6628, 6629
6607, 6629, 6630
6608, 6630, 6631
6609, 6631, 6632
6610, 6632, 6633
6611, 6633, 6634
6612, 6634, 6635
6613, 6635, 6636
6614, 6636, 6637
6615, 6637, 6638
6616, 6638, 6639
6617, 6639, 6640
6618, 6640, 6641
6619, 6641, 6642
6620, 6642, 6643
6621, 6643, 6644
6622, 6644, 6645
6623, 6645, 6646
6624, 6646, 6647
6625, 6647, 6648
6626, 6648, 6649
6627, 6649, 6650
6628, 6650, 6651
6629, 6651, 6652
6630, 6652, 6653
6631, 6653, 6654
6632, 6654,   39
6633,  111, 6655
6634, 6655, 6656
6635, 6656, 6657
6636, 6657, 6658
6637, 6658, 6659
6638, 6659, 6660
6639, 6660, 6661
6640, 6661, 6662
6641, 6662, 6663
6642, 6663, 6664
6643, 6664, 6665
6644, 6665, 6666
6645, 6666, 6667
6646, 6667, 6668
6647, 6668, 6669
6648, 6669, 6670
6649, 6670, 6671
6650, 6671, 6672
6651, 6672, 6673
6652, 6673, 6674
6653, 6674, 6675
6654, 6675, 6676
6655, 6676, 6677
6656, 6677, 6678
6657, 6678, 6679
6658, 6679, 6680
6659, 6680, 6681
6660, 6681, 6682
6661, 6682, 6683
6662, 6683, 6684
6663, 6684, 6685
6664, 6685, 6686
6665, 6686, 6687
6666, 6687, 6688
6667, 6688, 6689
6668, 6689, 6690
6669, 6690, 6691
6670, 6691, 6692
6671, 6692, 6693
6672, 6693, 6694
6673, 6694, 6695
6674, 6695, 6696
6675, 6696, 6697
6676, 6697, 6698
6677, 6698, 6699
6678, 6699, 6700
6679, 6700, 6701
6680, 6701, 6702
6681, 6702, 6703
6682, 6703, 6704
6683, 6704, 6705
6684, 6705, 6706
6685, 6706, 6707
6686, 6707, 6708
6687, 6708, 6709
6688, 6709, 6710
6689, 6710, 6711
6690, 6711, 6712
6691, 6712, 6713
6692, 6713, 6714
6693, 6714, 6715
6694, 6715, 6716
6695, 6716, 6717
6696, 6717, 6718
6697, 6718, 6719
6698, 6719,  110
6699,  112, 6720
6700, 6720, 6721
6701, 6721, 6722
6702, 6722, 6723
6703, 6723, 6724
6704, 6724, 6725
6705, 6725, 6726
6706, 6726, 6727
6707, 6727, 6728
6708, 6728, 6729
6709, 6729, 6730
6710, 6730, 6731
6711, 6731, 6732
6712, 6732, 6733
6713, 6733, 6734
6714, 6734, 6735
6715, 6735, 6736
6716, 6736, 6737
6717, 6737, 6738
6718, 6738, 6739
6719, 6739, 6740
6720, 6740, 6741
6721, 6741, 6742
6722, 6742, 6743
6723, 6743, 6744
6724, 6744, 6745
6725, 6745, 6746
6726, 6746, 6747
6727, 6747, 6748
6728, 6748, 6749
6729, 6749, 6750
6730, 6750, 6751
6731, 6751, 6752
6732, 6752, 6753
6733, 6753, 6754
6734, 6754, 6755
6735, 6755, 6756
6736, 6756, 6757
6737, 6757, 6758
6738, 6758, 6759
6739, 6759, 6760
6740, 6760, 6761
6741, 6761, 6762
6742, 6762, 6763
6743, 6763, 6764
6744, 6764, 6765
6745, 6765, 6766
6746, 6766, 6767
6747, 6767, 6768
6748, 6768, 6769
6749, 6769, 6770
6750, 6770, 6771
6751, 6771, 6772
6752, 6772, 6773
6753, 6773, 6774
6754, 6774, 6775
6755, 6775, 6776
6756, 6776, 6777
6757, 6777, 6778
6758, 6778, 6779
6759, 6779, 6780
6760, 6780, 6781
6761, 6781, 6782
6762, 6782, 6783
6763, 6783, 6784
6764, 6784,  111
6765,  113, 6785
6766, 6785, 6786
6767, 6786, 6787
6768, 6787, 6788
6769, 6788, 6789
6770, 6789, 6790
6771, 6790, 6791
6772, 6791, 6792
6773, 6792, 6793
6774, 6793, 6794
6775, 6794, 6795
6776, 6795, 6796
6777, 6796, 6797
6778, 6797, 6798
6779, 6798, 6799
6780, 6799, 6800
6781, 6800, 6801
6782, 6801, 6802
6783, 6802, 6803
6784, 6803, 6804
6785, 6804, 6805
6786, 6805, 6806
6787, 6806, 6807
6788, 6807, 6808
6789, 6808, 6809
6790, 6809, 6810
6791, 6810, 6811
6792, 6811, 6812
6793, 6812, 6813
6794, 6813, 6814
6795, 6814, 6815
6796, 6815, 6816
6797, 6816, 6817
6798, 6817, 6818
6799, 6818, 6819
6800, 6819, 6820
6801, 6820, 6821
6802, 6821, 6822
6803, 6822, 6823
6804, 6823, 6824
6805, 6824, 6825
6806, 6825, 6826
6807, 6826, 6827
6808, 6827, 6828
6809, 6828, 6829
6810, 6829, 6830
6811, 6830, 6831
6812, 6831, 6832
6813, 6832, 6833
6814, 6833, 6834
6815, 6834, 6835
6816, 6835, 6836
6817, 6836, 6837
6818, 6837, 6838
6819, 6838, 6839
6820, 6839, 6840
6821, 6840, 6841
6822, 6841, 6842
6823, 6842, 6843
6824, 6843, 6844
6825, 6844, 6845
6826, 6845, 6846
6827, 6846, 6847
6828, 6847, 6848
6829, 6848, 6849
6830, 6849,  112
6831,  114, 6850
6832, 6850, 6851
6833, 6851, 6852
6834, 6852, 6853
6835, 6853, 6854
6836, 6854, 6855
6837, 6855, 6856
6838, 6856, 6857
6839, 6857, 6858
6840, 6858, 6859
6841, 6859, 6860
6842, 6860, 6861
6843, 6861, 6862
6844, 6862, 6863
6845, 6863, 6864
6846, 6864, 6865
6847, 6865, 6866
6848, 6866, 6867
6849, 6867, 6868
6850, 6868, 6869
6851, 6869, 6870
6852, 6870, 6871
6853, 6871, 6872
6854, 6872, 6873
6855, 6873, 6874
6856, 6874, 6875
6857, 6875, 6876
6858, 6876, 6877
6859, 6877, 6878
6860, 6878, 6879
6861, 6879, 6880
6862, 6880, 6881
6863, 6881, 6882
6864, 6882, 6883
6865, 6883, 6884
6866, 6884, 6885
6867, 6885, 6886
6868, 6886, 6887
6869, 6887, 6888
6870, 6888, 6889
6871, 6889, 6890
6872, 6890, 6891
6873, 6891, 6892
6874, 6892, 6893
6875, 6893, 6894
6876, 6894, 6895
6877, 6895, 6896
6878, 6896, 6897
6879, 6897, 6898
6880, 6898, 6899
6881, 6899, 6900
6882, 6900, 6901
6883, 6901, 6902
6884, 6902, 6903
6885, 6903, 6904
6886, 6904, 6905
6887, 6905, 6906
6888, 6906, 6907
6889, 6907, 6908
6890, 6908, 6909
6891, 6909, 6910
6892, 6910, 6911
6893, 6911, 6912
6894, 6912, 6913
6895, 6913, 6914
6896, 6914,  113
6897,   46, 6915
6898, 6915, 6916
6899, 6916, 6917
6900, 6917, 6918
6901, 6918, 6919
6902, 6919, 6920
6903, 6920, 6921
6904, 6921, 6922
6905, 6922, 6923
6906, 6923, 6924
6907, 6924, 6925
6908, 6925, 6926
6909, 6926, 6927
6910, 6927, 6928
6911, 6928, 6929
6912, 6929, 6930
6913, 6930, 6931
6914, 6931, 6932
6915, 6932, 6933
6916, 6933, 6934
6917, 6934, 6935
6918, 6935, 6936
6919, 6936, 6937
6920, 6937, 6938
6921, 6938, 6939
6922, 6939, 6940
6923, 6940, 6941
6924, 6941, 6942
6925, 6942, 6943
6926, 6943, 6944
6927, 6944, 6945
6928, 6945, 6946
6929, 6946,  114
6930,  115, 6947
6931, 6947, 6948
6932, 6948, 6949
6933, 6949, 6950
6934, 6950, 6951
6935, 6951, 6952
6936, 6952, 6953
6937, 6953, 6954
6938, 6954, 6955
6939, 6955, 6956
6940, 6956, 6957
6941, 6957, 6958
6942, 6958, 6959
6943, 6959, 6960
6944, 6960, 6961
6945, 6961, 6962
6946, 6962, 6963
6947, 6963, 6964
6948, 6964, 6965
6949, 6965, 6966
6950, 6966, 6967
6951, 6967, 6968
6952, 6968, 6969
6953, 6969, 6970
6954, 6970, 6971
6955, 6971, 6972
6956, 6972, 6973
6957, 6973, 6974
6958, 6974, 6975
6959, 6975, 6976
6960, 6976, 6977
6961, 6977, 6978
6962, 6978,   46
6963,  116, 6979
6964, 6979, 6980
6965, 6980, 6981
6966, 6981, 6982
6967, 6982, 6983
6968, 6983, 6984
6969, 6984, 6985
6970, 6985, 6986
6971, 6986, 6987
6972, 6987, 6988
6973, 6988, 6989
6974, 6989, 6990
6975, 6990, 6991
6976, 6991, 6992
6977, 6992, 6993
6978, 6993, 6994
6979, 6994, 6995
6980, 6995, 6996
6981, 6996, 6997
6982, 6997, 6998
6983, 6998, 6999
6984, 6999, 7000
6985, 7000, 7001
6986, 7001, 7002
6987, 7002, 7003
6988, 7003, 7004
6989, 7004, 7005
6990, 7005, 7006
6991, 7006, 7007
6992, 7007, 7008
6993, 7008, 7009
6994, 7009, 7010
6995, 7010, 7011
6996, 7011, 7012
6997, 7012, 7013
6998, 7013, 7014
6999, 7014, 7015
7000, 7015, 7016
7001, 7016, 7017
7002, 7017, 7018
7003, 7018, 7019
7004, 7019, 7020
7005, 7020, 7021
7006, 7021, 7022
7007, 7022, 7023
7008, 7023, 7024
7009, 7024, 7025
7010, 7025, 7026
7011, 7026, 7027
7012, 7027, 7028
7013, 7028, 7029
7014, 7029, 7030
7015, 7030, 7031
7016, 7031, 7032
7017, 7032, 7033
7018, 7033, 7034
7019, 7034, 7035
7020, 7035, 7036
7021, 7036, 7037
7022, 7037, 7038
7023, 7038, 7039
7024, 7039, 7040
7025, 7040, 7041
7026, 7041, 7042
7027, 7042, 7043
7028, 7043,  115
7029,  117, 7044
7030, 7044, 7045
7031, 7045, 7046
7032, 7046, 7047
7033, 7047, 7048
7034, 7048, 7049
7035, 7049, 7050
7036, 7050, 7051
7037, 7051, 7052
7038, 7052, 7053
7039, 7053, 7054
7040, 7054, 7055
7041, 7055, 7056
7042, 7056, 7057
7043, 7057, 7058
7044, 7058, 7059
7045, 7059, 7060
7046, 7060, 7061
7047, 7061, 7062
7048, 7062, 7063
7049, 7063, 7064
7050, 7064, 7065
7051, 7065, 7066
7052, 7066, 7067
7053, 7067, 7068
7054, 7068, 7069
7055, 7069, 7070
7056, 7070, 7071
7057, 7071, 7072
7058, 7072, 7073
7059, 7073, 7074
7060, 7074, 7075
7061, 7075, 7076
7062, 7076, 7077
7063, 7077, 7078
7064, 7078, 7079
7065, 7079, 7080
7066, 7080, 7081
7067, 7081, 7082
7068, 7082, 7083
7069, 7083, 7084
7070, 7084, 7085
7071, 7085, 7086
7072, 7086, 7087
7073, 7087, 7088
7074, 7088, 7089
7075, 7089, 7090
7076, 7090, 7091
7077, 7091, 7092
7078, 7092, 7093
7079, 7093, 7094
7080, 7094, 7095
7081, 7095, 7096
7082, 7096, 7097
7083, 7097, 7098
7084, 7098, 7099
7085, 7099, 7100
7086, 7100, 7101
7087, 7101, 7102
7088, 7102, 7103
7089, 7103, 7104
7090, 7104, 7105
7091, 7105, 7106
7092, 7106, 7107
7093, 7107, 7108
7094, 7108,  116
7095,  118, 7109
7096, 7109, 7110
7097, 7110, 7111
7098, 7111, 7112
7099, 7112, 7113
7100, 7113, 7114
7101, 7114, 7115
7102, 7115, 7116
7103, 7116, 7117
7104, 7117, 7118
7105, 7118, 7119
7106, 7119, 7120
7107, 7120, 7121
7108, 7121, 7122
7109, 7122, 7123
7110, 7123, 7124
7111, 7124, 7125
7112, 7125, 7126
7113, 7126, 7127
7114, 7127, 7128
7115, 7128, 7129
7116, 7129, 7130
7117, 7130, 7131
7118, 7131, 7132
7119, 7132, 7133
7120, 7133, 7134
7121, 7134, 7135
7122, 7135, 7136
7123, 7136, 7137
7124, 7137, 7138
7125, 7138, 7139
7126, 7139, 7140
7127, 7140, 7141
7128, 7141, 7142
7129, 7142, 7143
7130, 7143, 7144
7131, 7144, 7145
7132, 7145, 7146
7133, 7146, 7147
7134, 7147, 7148
7135, 7148, 7149
7136, 7149, 7150
7137, 7150, 7151
7138, 7151, 7152
7139, 7152, 7153
7140, 7153, 7154
7141, 7154, 7155
7142, 7155, 7156
7143, 7156, 7157
7144, 7157, 7158
7145, 7158, 7159
7146, 7159, 7160
7147, 7160, 7161
7148, 7161, 7162
7149, 7162, 7163
7150, 7163, 7164
7151, 7164, 7165
7152, 7165, 7166
7153, 7166, 7167
7154, 7167, 7168
7155, 7168, 7169
7156, 7169, 7170
7157, 7170, 7171
7158, 7171, 7172
7159, 7172, 7173
7160, 7173,  117
7161,  119, 7174
7162, 7174, 7175
7163, 7175, 7176
7164, 7176, 7177
7165, 7177, 7178
7166, 7178, 7179
7167, 7179, 7180
7168, 7180, 7181
7169, 7181, 7182
7170, 7182, 7183
7171, 7183, 7184
7172, 7184, 7185
7173, 7185, 7186
7174, 7186, 7187
7175, 7187, 7188
7176, 7188, 7189
7177, 7189, 7190
7178, 7190, 7191
7179, 7191, 7192
7180, 7192, 7193
7181, 7193, 7194
7182, 7194, 7195
7183, 7195, 7196
7184, 7196, 7197
7185, 7197, 7198
7186, 7198, 7199
7187, 7199, 7200
7188, 7200, 7201
7189, 7201, 7202
7190, 7202, 7203
7191, 7203, 7204
7192, 7204, 7205
7193, 7205, 7206
7194, 7206, 7207
7195, 7207, 7208
7196, 7208, 7209
7197, 7209, 7210
7198, 7210, 7211
7199, 7211, 7212
7200, 7212, 7213
7201, 7213, 7214
7202, 7214, 7215
7203, 7215, 7216
7204, 7216, 7217
7205, 7217, 7218
7206, 7218, 7219
7207, 7219, 7220
7208, 7220, 7221
7209, 7221, 7222
7210, 7222, 7223
7211, 7223, 7224
7212, 7224, 7225
7213, 7225, 7226
7214, 7226, 7227
7215, 7227, 7228
7216, 7228, 7229
7217, 7229, 7230
7218, 7230, 7231
7219, 7231, 7232
7220, 7232, 7233
7221, 7233, 7234
7222, 7234, 7235
7223, 7235, 7236
7224, 7236, 7237
7225, 7237, 7238
7226, 7238,  118
7227,   53, 7239
7228, 7239, 7240
7229, 7240, 7241
7230, 7241, 7242
7231, 7242, 7243
7232, 7243, 7244
7233, 7244, 7245
7234, 7245, 7246
7235, 7246, 7247
7236, 7247, 7248
7237, 7248, 7249
7238, 7249, 7250
7239, 7250, 7251
7240, 7251, 7252
7241, 7252, 7253
7242, 7253, 7254
7243, 7254, 7255
7244, 7255, 7256
7245, 7256, 7257
7246, 7257, 7258
7247, 7258, 7259
7248, 7259, 7260
7249, 7260, 7261
7250, 7261, 7262
7251, 7262, 7263
7252, 7263, 7264
7253, 7264, 7265
7254, 7265, 7266
7255, 7266, 7267
7256, 7267, 7268
7257, 7268, 7269
7258, 7269, 7270
7259, 7270, 7271
7260, 7271, 7272
7261, 7272, 7273
7262, 7273, 7274
7263, 7274, 7275
7264, 7275, 7276
7265, 7276, 7277
7266, 7277, 7278
7267, 7278, 7279
7268, 7279, 7280
7269, 7280, 7281
7270, 7281, 7282
7271, 7282, 7283
7272, 7283, 7284
7273, 7284, 7285
7274, 7285, 7286
7275, 7286, 7287
7276, 7287, 7288
7277, 7288, 7289
7278, 7289, 7290
7279, 7290, 7291
7280, 7291, 7292
7281, 7292, 7293
7282, 7293, 7294
7283, 7294, 7295
7284, 7295, 7296
7285, 7296, 7297
7286, 7297, 7298
7287, 7298, 7299
7288, 7299, 7300
7289, 7300, 7301
7290, 7301, 7302
7291, 7302, 7303
7292, 7303,  119
7293,  120, 7304
7294, 7304, 7305
7295, 7305, 7306
7296, 7306, 7307
7297, 7307, 7308
7298, 7308, 7309
7299, 7309, 7310
7300, 7310, 7311
7301, 7311, 7312
7302, 7312, 7313
7303, 7313, 7314
7304, 7314, 7315
7305, 7315, 7316
7306, 7316, 7317
7307, 7317, 7318
7308, 7318, 7319
7309, 7319, 7320
7310, 7320, 7321
7311, 7321, 7322
7312, 7322, 7323
7313, 7323, 7324
7314, 7324, 7325
7315, 7325, 7326
7316, 7326, 7327
7317, 7327, 7328
7318, 7328, 7329
7319, 7329, 7330
7320, 7330, 7331
7321, 7331, 7332
7322, 7332, 7333
7323, 7333, 7334
7324, 7334, 7335
7325, 7335, 7336
7326, 7336, 7337
7327, 7337, 7338
7328, 7338, 7339
7329, 7339, 7340
7330, 7340, 7341
7331, 7341, 7342
7332, 7342, 7343
7333, 7343, 7344
7334, 7344, 7345
7335, 7345, 7346
7336, 7346, 7347
7337, 7347, 7348
7338, 7348, 7349
7339, 7349, 7350
7340, 7350, 7351
7341, 7351, 7352
7342, 7352, 7353
7343, 7353, 7354
7344, 7354, 7355
7345, 7355, 7356
7346, 7356, 7357
7347, 7357, 7358
7348, 7358, 7359
7349, 7359, 7360
7350, 7360, 7361
7351, 7361, 7362
7352, 7362, 7363
7353, 7363, 7364
7354, 7364, 7365
7355, 7365, 7366
7356, 7366, 7367
7357, 7367, 7368
7358, 7368,   53
7359,  121, 7369
7360, 7369, 7370
7361, 7370, 7371
7362, 7371, 7372
7363, 7372, 7373
7364, 7373, 7374
7365, 7374, 7375
7366, 7375, 7376
7367, 7376, 7377
7368, 7377, 7378
7369, 7378, 7379
7370, 7379, 7380
7371, 7380, 7381
7372, 7381, 7382
7373, 7382, 7383
7374, 7383, 7384
7375, 7384, 7385
7376, 7385, 7386
7377, 7386, 7387
7378, 7387, 7388
7379, 7388, 7389
7380, 7389, 7390
7381, 7390, 7391
7382, 7391, 7392
7383, 7392, 7393
7384, 7393, 7394
7385, 7394, 7395
7386, 7395, 7396
7387, 7396, 7397
7388, 7397, 7398
7389, 7398, 7399
7390, 7399, 7400
7391, 7400, 7401
7392, 7401, 7402
7393, 7402, 7403
7394, 7403, 7404
7395, 7404, 7405
7396, 7405, 7406
7397, 7406, 7407
7398, 7407, 7408
7399, 7408, 7409
7400, 7409, 7410
7401, 7410, 7411
7402, 7411, 7412
7403, 7412, 7413
7404, 7413, 7414
7405, 7414, 7415
7406, 7415, 7416
7407, 7416, 7417
7408, 7417, 7418
7409, 7418, 7419
7410, 7419, 7420
7411, 7420, 7421
7412, 7421, 7422
7413, 7422, 7423
7414, 7423, 7424
7415, 7424, 7425
7416, 7425, 7426
7417, 7426, 7427
7418, 7427, 7428
7419, 7428, 7429
7420, 7429, 7430
7421, 7430, 7431
7422, 7431, 7432
7423, 7432, 7433
7424, 7433,  120
7425,  122, 7434
7426, 7434, 7435
7427, 7435, 7436
7428, 7436, 7437
7429, 7437, 7438
7430, 7438, 7439
7431, 7439, 7440
7432, 7440, 7441
7433, 7441, 7442
7434, 7442, 7443
7435, 7443, 7444
7436, 7444, 7445
7437, 7445, 7446
7438, 7446, 7447
7439, 7447, 7448
7440, 7448, 7449
7441, 7449, 7450
7442, 7450, 7451
7443, 7451, 7452
7444, 7452, 7453
7445, 7453, 7454
7446, 7454, 7455
7447, 7455, 7456
7448, 7456, 7457
7449, 7457, 7458
7450, 7458, 7459
7451, 7459, 7460
7452, 7460, 7461
7453, 7461, 7462
7454, 7462, 7463
7455, 7463, 7464
7456, 7464, 7465
7457, 7465, 7466
7458, 7466, 7467
7459, 7467, 7468
7460, 7468, 7469
7461, 7469, 7470
7462, 7470, 7471
7463, 7471, 7472
7464, 7472, 7473
7465, 7473, 7474
7466, 7474, 7475
7467, 7475, 7476
7468, 7476, 7477
7469, 7477, 7478
7470, 7478, 7479
7471, 7479, 7480
7472, 7480, 7481
7473, 7481, 7482
7474, 7482, 7483
7475, 7483, 7484
7476, 7484, 7485
7477, 7485, 7486
7478, 7486, 7487
7479, 7487, 7488
7480, 7488, 7489
7481, 7489, 7490
7482, 7490, 7491
7483, 7491, 7492
7484, 7492, 7493
7485, 7493, 7494
7486, 7494, 7495
7487, 7495, 7496
7488, 7496, 7497
7489, 7497, 7498
7490, 7498,  121
7491,  123, 7499
7492, 7499, 7500
7493, 7500, 7501
7494, 7501, 7502
7495, 7502, 7503
7496, 7503, 7504
7497, 7504, 7505
7498, 7505, 7506
7499, 7506, 7507
7500, 7507, 7508
7501, 7508, 7509
7502, 7509, 7510
7503, 7510, 7511
7504, 7511, 7512
7505, 7512, 7513
7506, 7513, 7514
7507, 7514, 7515
7508, 7515, 7516
7509, 7516, 7517
7510, 7517, 7518
7511, 7518, 7519
7512, 7519, 7520
7513, 7520, 7521
7514, 7521, 7522
7515, 7522, 7523
7516, 7523, 7524
7517, 7524, 7525
7518, 7525, 7526
7519, 7526, 7527
7520, 7527, 7528
7521, 7528, 7529
7522, 7529, 7530
7523, 7530, 7531
7524, 7531, 7532
7525, 7532, 7533
7526, 7533, 7534
7527, 7534, 7535
7528, 7535, 7536
7529, 7536, 7537
7530, 7537, 7538
7531, 7538, 7539
7532, 7539, 7540
7533, 7540, 7541
7534, 7541, 7542
7535, 7542, 7543
7536, 7543, 7544
7537, 7544, 7545
7538, 7545, 7546
7539, 7546, 7547
7540, 7547, 7548
7541, 7548, 7549
7542, 7549, 7550
7543, 7550, 7551
7544, 7551, 7552
7545, 7552, 7553
7546, 7553, 7554
7547, 7554, 7555
7548, 7555, 7556
7549, 7556, 7557
7550, 7557, 7558
7551, 7558, 7559
7552, 7559, 7560
7553, 7560, 7561
7554, 7561, 7562
7555, 7562, 7563
7556, 7563,  122
7557,  124, 7564
7558, 7564, 7565
7559, 7565, 7566
7560, 7566, 7567
7561, 7567, 7568
7562, 7568, 7569
7563, 7569, 7570
7564, 7570, 7571
7565, 7571, 7572
7566, 7572, 7573
7567, 7573, 7574
7568, 7574, 7575
7569, 7575, 7576
7570, 7576, 7577
7571, 7577, 7578
7572, 7578, 7579
7573, 7579, 7580
7574, 7580, 7581
7575, 7581, 7582
7576, 7582, 7583
7577, 7583, 7584
7578, 7584, 7585
7579, 7585, 7586
7580, 7586, 7587
7581, 7587, 7588
7582, 7588, 7589
7583, 7589, 7590
7584, 7590, 7591
7585, 7591, 7592
7586, 7592, 7593
7587, 7593, 7594
7588, 7594, 7595
7589, 7595, 7596
7590, 7596, 7597
7591, 7597, 7598
7592, 7598, 7599
7593, 7599, 7600
7594, 7600, 7601
7595, 7601, 7602
7596, 7602, 7603
7597, 7603, 7604
7598, 7604, 7605
7599, 7605, 7606
7600, 7606, 7607
7601, 7607, 7608
7602, 7608, 7609
7603, 7609, 7610
7604, 7610, 7611
7605, 7611, 7612
7606, 7612, 7613
7607, 7613, 7614
7608, 7614, 7615
7609, 7615, 7616
7610, 7616, 7617
7611, 7617, 7618
7612, 7618, 7619
7613, 7619, 7620
7614, 7620, 7621
7615, 7621, 7622
7616, 7622, 7623
7617, 7623, 7624
7618, 7624, 7625
7619, 7625, 7626
7620, 7626, 7627
7621, 7627, 7628
7622, 7628,  123
7623,   59, 7629
7624, 7629, 7630
7625, 7630, 7631
7626, 7631, 7632
7627, 7632, 7633
7628, 7633, 7634
7629, 7634, 7635
7630, 7635, 7636
7631, 7636, 7637
7632, 7637, 7638
7633, 7638, 7639
7634, 7639, 7640
7635, 7640, 7641
7636, 7641, 7642
7637, 7642, 7643
7638, 7643, 7644
7639, 7644, 7645
7640, 7645, 7646
7641, 7646, 7647
7642, 7647, 7648
7643, 7648, 7649
7644, 7649, 7650
7645, 7650, 7651
7646, 7651, 7652
7647, 7652, 7653
7648, 7653, 7654
7649, 7654, 7655
7650, 7655, 7656
7651, 7656, 7657
7652, 7657, 7658
7653, 7658, 7659
7654, 7659, 7660
7655, 7660,  124
7656,  125, 7661
7657, 7661, 7662
7658, 7662, 7663
7659, 7663, 7664
7660, 7664, 7665
7661, 7665, 7666
7662, 7666, 7667
7663, 7667, 7668
7664, 7668, 7669
7665, 7669, 7670
7666, 7670, 7671
7667, 7671, 7672
7668, 7672, 7673
7669, 7673, 7674
7670, 7674, 7675
7671, 7675, 7676
7672, 7676, 7677
7673, 7677, 7678
7674, 7678, 7679
7675, 7679, 7680
7676, 7680, 7681
7677, 7681, 7682
7678, 7682, 7683
7679, 7683, 7684
7680, 7684, 7685
7681, 7685, 7686
7682, 7686, 7687
7683, 7687, 7688
7684, 7688, 7689
7685, 7689, 7690
7686, 7690, 7691
7687, 7691, 7692
7688, 7692, 7693
7689, 7693, 7694
7690, 7694, 7695
7691, 7695, 7696
7692, 7696, 7697
7693, 7697, 7698
7694, 7698, 7699
7695, 7699, 7700
7696, 7700, 7701
7697, 7701, 7702
7698, 7702, 7703
7699, 7703, 7704
7700, 7704, 7705
7701, 7705, 7706
7702, 7706, 7707
7703, 7707, 7708
7704, 7708, 7709
7705, 7709, 7710
7706, 7710, 7711
7707, 7711, 7712
7708, 7712, 7713
7709, 7713, 7714
7710, 7714, 7715
7711, 7715, 7716
7712, 7716, 7717
7713, 7717, 7718
7714, 7718, 7719
7715, 7719, 7720
7716, 7720, 7721
7717, 7721, 7722
7718, 7722, 7723
7719, 7723, 7724
7720, 7724, 7725
7721, 7725, 7726
7722, 7726, 7727
7723, 7727, 7728
7724, 7728, 7729
7725, 7729, 7730
7726, 7730, 7731
7727, 7731, 7732
7728, 7732, 7733
7729, 7733, 7734
7730, 7734, 7735
7731, 7735, 7736
7732, 7736, 7737
7733, 7737, 7738
7734, 7738, 7739
7735, 7739, 7740
7736, 7740, 7741
7737, 7741, 7742
7738, 7742, 7743
7739, 7743, 7744
7740, 7744, 7745
7741, 7745, 7746
7742, 7746, 7747
7743, 7747, 7748
7744, 7748, 7749
7745, 7749, 7750
7746, 7750, 7751
7747, 7751, 7752
7748, 7752, 7753
7749, 7753, 7754
7750, 7754, 7755
7751, 7755, 7756
7752, 7756, 7757
7753, 7757, 7758
7754, 7758, 7759
7755, 7759, 7760
7756, 7760, 7761
7757, 7761, 7762
7758, 7762, 7763
7759, 7763, 7764
7760, 7764, 7765
7761, 7765, 7766
7762, 7766, 7767
7763, 7767, 7768
7764, 7768, 7769
7765, 7769, 7770
7766, 7770, 7771
7767, 7771, 7772
7768, 7772, 7773
7769, 7773, 7774
7770, 7774, 7775
7771, 7775, 7776
7772, 7776, 7777
7773, 7777, 7778
7774, 7778, 7779
7775, 7779, 7780
7776, 7780, 7781
7777, 7781, 7782
7778, 7782, 7783
7779, 7783, 7784
7780, 7784, 7785
7781, 7785, 7786
7782, 7786, 7787
7783, 7787, 7788
7784, 7788, 7789
7785, 7789,   35
7786,  126, 7790
7787, 7790, 7791
7788, 7791, 7792
7789, 7792, 7793
7790, 7793, 7794
7791, 7794, 7795
7792, 7795, 7796
7793, 7796, 7797
7794, 7797, 7798
7795, 7798, 7799
7796, 7799, 7800
7797, 7800, 7801
7798, 7801, 7802
7799, 7802, 7803
7800, 7803, 7804
7801, 7804, 7805
7802, 7805, 7806
7803, 7806, 7807
7804, 7807, 7808
7805, 7808, 7809
7806, 7809, 7810
7807, 7810, 7811
7808, 7811, 7812
7809, 7812, 7813
7810, 7813, 7814
7811, 7814, 7815
7812, 7815, 7816
7813, 7816, 7817
7814, 7817, 7818
7815, 7818, 7819
7816, 7819, 7820
7817, 7820, 7821
7818, 7821,  125
7819,  127, 7822
7820, 7822, 7823
7821, 7823, 7824
7822, 7824, 7825
7823, 7825, 7826
7824, 7826, 7827
7825, 7827, 7828
7826, 7828, 7829
7827, 7829, 7830
7828, 7830,   38
7829,  128, 7831
7830, 7831, 7832
7831, 7832, 7833
7832, 7833, 7834
7833, 7834, 7835
7834, 7835, 7836
7835, 7836, 7837
7836, 7837, 7838
7837, 7838, 7839
7838, 7839, 7840
7839, 7840, 7841
7840, 7841, 7842
7841, 7842, 7843
7842, 7843, 7844
7843, 7844, 7845
7844, 7845, 7846
7845, 7846, 7847
7846, 7847, 7848
7847, 7848, 7849
7848, 7849, 7850
7849, 7850, 7851
7850, 7851, 7852
7851, 7852, 7853
7852, 7853, 7854
7853, 7854, 7855
7854, 7855, 7856
7855, 7856, 7857
7856, 7857, 7858
7857, 7858, 7859
7858, 7859, 7860
7859, 7860, 7861
7860, 7861, 7862
7861, 7862, 7863
7862, 7863, 7864
7863, 7864, 7865
7864, 7865, 7866
7865, 7866, 7867
7866, 7867, 7868
7867, 7868, 7869
7868, 7869, 7870
7869, 7870, 7871
7870, 7871, 7872
7871, 7872, 7873
7872, 7873, 7874
7873, 7874, 7875
7874, 7875, 7876
7875, 7876, 7877
7876, 7877, 7878
7877, 7878, 7879
7878, 7879, 7880
7879, 7880, 7881
7880, 7881, 7882
7881, 7882, 7883
7882, 7883, 7884
7883, 7884, 7885
7884, 7885, 7886
7885, 7886, 7887
7886, 7887, 7888
7887, 7888, 7889
7888, 7889, 7890
7889, 7890, 7891
7890, 7891, 7892
7891, 7892, 7893
7892, 7893, 7894
7893, 7894, 7895
7894, 7895, 7896
7895, 7896, 7897
7896, 7897, 7898
7897, 7898, 7899
7898, 7899, 7900
7899, 7900, 7901
7900, 7901, 7902
7901, 7902, 7903
7902, 7903,  127
7903,  129, 7904
7904, 7904, 7905
7905, 7905, 7906
7906, 7906, 7907
7907, 7907, 7908
7908, 7908, 7909
7909, 7909, 7910
7910, 7910, 7911
7911, 7911, 7912
7912, 7912, 7913
7913, 7913, 7914
7914, 7914, 7915
7915, 7915, 7916
7916, 7916, 7917
7917, 7917, 7918
7918, 7918, 7919
7919, 7919, 7920
7920, 7920, 7921
7921, 7921, 7922
7922, 7922, 7923
7923, 7923, 7924
7924, 7924, 7925
7925, 7925, 7926
7926, 7926, 7927
7927, 7927, 7928
7928, 7928, 7929
7929, 7929, 7930
7930, 7930, 7931
7931, 7931, 7932
7932, 7932, 7933
7933, 7933, 7934
7934, 7934, 7935
7935, 7935, 7936
7936, 7936, 7937
7937, 7937, 7938
7938, 7938, 7939
7939, 7939, 7940
7940, 7940, 7941
7941, 7941, 7942
7942, 7942, 7943
7943, 7943, 7944
7944, 7944, 7945
7945, 7945, 7946
7946, 7946, 7947
7947, 7947, 7948
7948, 7948, 7949
7949, 7949, 7950
7950, 7950, 7951
7951, 7951, 7952
7952, 7952, 7953
7953, 7953, 7954
7954, 7954, 7955
7955, 7955, 7956
7956, 7956, 7957
7957, 7957, 7958
7958, 7958, 7959
7959, 7959, 7960
7960, 7960, 7961
7961, 7961, 7962
7962, 7962, 7963
7963, 7963, 7964
7964, 7964, 7965
7965, 7965, 7966
7966, 7966, 7967
7967, 7967, 7968
7968, 7968, 7969
7969, 7969, 7970
7970, 7970, 7971
7971, 7971, 7972
7972, 7972, 7973
7973, 7973, 7974
7974, 7974, 7975
7975, 7975, 7976
7976, 7976, 7977
7977, 7977, 7978
7978, 7978, 7979
7979, 7979, 7980
7980, 7980, 7981
7981, 7981, 7982
7982, 7982, 7983
7983, 7983, 7984
7984, 7984, 7985
7985, 7985, 7986
7986, 7986, 7987
7987, 7987, 7988
7988, 7988, 7989
7989, 7989, 7990
7990, 7990, 7991
7991, 7991, 7992
7992, 7992, 7993
7993, 7993, 7994
7994, 7994, 7995
7995, 7995, 7996
7996, 7996, 7997
7997, 7997, 7998
7998, 7998, 7999
7999, 7999, 8000
8000, 8000, 8001
8001, 8001, 8002
8002, 8002, 8003
8003, 8003, 8004
8004, 8004, 8005
8005, 8005, 8006
8006, 8006, 8007
8007, 8007, 8008
8008, 8008, 8009
8009, 8009, 8010
8010, 8010, 8011
8011, 8011, 8012
8012, 8012, 8013
8013, 8013, 8014
8014, 8014, 8015
8015, 8015, 8016
8016, 8016, 8017
8017, 8017, 8018
8018, 8018, 8019
8019, 8019, 8020
8020, 8020, 8021
8021, 8021, 8022
8022, 8022, 8023
8023, 8023, 8024
8024, 8024, 8025
8025, 8025, 8026
8026, 8026, 8027
8027, 8027, 8028
8028, 8028, 8029
8029, 8029, 8030
8030, 8030, 8031
8031, 8031, 8032
8032, 8032,   42
8033,  130, 8033
8034, 8033, 8034
8035, 8034, 8035
8036, 8035, 8036
8037, 8036, 8037
8038, 8037, 8038
8039, 8038, 8039
8040, 8039, 8040
8041, 8040, 8041
8042, 8041, 8042
8043, 8042, 8043
8044, 8043, 8044
8045, 8044, 8045
8046, 8045, 8046
8047, 8046, 8047
8048, 8047, 8048
8049, 8048, 8049
8050, 8049, 8050
8051, 8050, 8051
8052, 8051, 8052
8053, 8052, 8053
8054, 8053, 8054
8055, 8054, 8055
8056, 8055, 8056
8057, 8056, 8057
8058, 8057, 8058
8059, 8058, 8059
8060, 8059, 8060
8061, 8060, 8061
8062, 8061, 8062
8063, 8062, 8063
8064, 8063, 8064
8065, 8064,  129
8066,  131, 8065
8067, 8065, 8066
8068, 8066, 8067
8069, 8067, 8068
8070, 8068, 8069
8071, 8069, 8070
8072, 8070, 8071
8073, 8071, 8072
8074, 8072, 8073
8075, 8073,   45
8076,  132, 8074
8077, 8074, 8075
8078, 8075, 8076
8079, 8076, 8077
8080, 8077, 8078
8081, 8078, 8079
8082, 8079, 8080
8083, 8080, 8081
8084, 8081, 8082
8085, 8082, 8083
8086, 8083, 8084
8087, 8084, 8085
8088, 8085, 8086
8089, 8086, 8087
8090, 8087, 8088
8091, 8088, 8089
8092, 8089, 8090
8093, 8090, 8091
8094, 8091, 8092
8095, 8092, 8093
8096, 8093, 8094
8097, 8094, 8095
8098, 8095, 8096
8099, 8096, 8097
8100, 8097, 8098
8101, 8098, 8099
8102, 8099, 8100
8103, 8100, 8101
8104, 8101, 8102
8105, 8102, 8103
8106, 8103, 8104
8107, 8104, 8105
8108, 8105, 8106
8109, 8106, 8107
8110, 8107, 8108
8111, 8108, 8109
8112, 8109, 8110
8113, 8110, 8111
8114, 8111, 8112
8115, 8112, 8113
8116, 8113, 8114
8117, 8114, 8115
8118, 8115, 8116
8119, 8116, 8117
8120, 8117, 8118
8121, 8118, 8119
8122, 8119, 8120
8123, 8120, 8121
8124, 8121, 8122
8125, 8122, 8123
8126, 8123, 8124
8127, 8124, 8125
8128, 8125, 8126
8129, 8126, 8127
8130, 8127, 8128
8131, 8128, 8129
8132, 8129, 8130
8133, 8130, 8131
8134, 8131, 8132
8135, 8132, 8133
8136, 8133, 8134
8137, 8134, 8135
8138, 8135, 8136
8139, 8136, 8137
8140, 8137, 8138
8141, 8138, 8139
8142, 8139, 8140
8143, 8140, 8141
8144, 8141, 8142
8145, 8142, 8143
8146, 8143, 8144
8147, 8144, 8145
8148, 8145, 8146
8149, 8146,  131
8150,  133, 8147
8151, 8147, 8148
8152, 8148, 8149
8153, 8149, 8150
8154, 8150, 8151
8155, 8151, 8152
8156, 8152, 8153
8157, 8153, 8154
8158, 8154, 8155
8159, 8155, 8156
8160, 8156, 8157
8161, 8157, 8158
8162, 8158, 8159
8163, 8159, 8160
8164, 8160, 8161
8165, 8161, 8162
8166, 8162, 8163
8167, 8163, 8164
8168, 8164, 8165
8169, 8165, 8166
8170, 8166, 8167
8171, 8167, 8168
8172, 8168, 8169
8173, 8169, 8170
8174, 8170, 8171
8175, 8171, 8172
8176, 8172, 8173
8177, 8173, 8174
8178, 8174, 8175
8179, 8175, 8176
8180, 8176, 8177
8181, 8177, 8178
8182, 8178, 8179
8183, 8179, 8180
8184, 8180, 8181
8185, 8181, 8182
8186, 8182, 8183
8187, 8183, 8184
8188, 8184, 8185
8189, 8185, 8186
8190, 8186, 8187
8191, 8187, 8188
8192, 8188, 8189
8193, 8189, 8190
8194, 8190, 8191
8195, 8191, 8192
8196, 8192, 8193
8197, 8193, 8194
8198, 8194, 8195
8199, 8195, 8196
8200, 8196, 8197
8201, 8197, 8198
8202, 8198, 8199
8203, 8199, 8200
8204, 8200, 8201
8205, 8201, 8202
8206, 8202, 8203
8207, 8203, 8204
8208, 8204, 8205
8209, 8205, 8206
8210, 8206, 8207
8211, 8207, 8208
8212, 8208, 8209
8213, 8209, 8210
8214, 8210, 8211
8215, 8211, 8212
8216, 8212, 8213
8217, 8213, 8214
8218, 8214, 8215
8219, 8215, 8216
8220, 8216, 8217
8221, 8217, 8218
8222, 8218, 8219
8223, 8219, 8220
8224, 8220, 8221
8225, 8221, 8222
8226, 8222, 8223
8227, 8223, 8224
8228, 8224, 8225
8229, 8225, 8226
8230, 8226, 8227
8231, 8227, 8228
8232, 8228, 8229
8233, 8229, 8230
8234, 8230, 8231
8235, 8231, 8232
8236, 8232, 8233
8237, 8233, 8234
8238, 8234, 8235
8239, 8235, 8236
8240, 8236, 8237
8241, 8237, 8238
8242, 8238, 8239
8243, 8239, 8240
8244, 8240, 8241
8245, 8241, 8242
8246, 8242, 8243
8247, 8243, 8244
8248, 8244, 8245
8249, 8245, 8246
8250, 8246, 8247
8251, 8247, 8248
8252, 8248, 8249
8253, 8249, 8250
8254, 8250, 8251
8255, 8251, 8252
8256, 8252, 8253
8257, 8253, 8254
8258, 8254, 8255
8259, 8255, 8256
8260, 8256, 8257
8261, 8257, 8258
8262, 8258, 8259
8263, 8259, 8260
8264, 8260, 8261
8265, 8261, 8262
8266, 8262, 8263
8267, 8263, 8264
8268, 8264, 8265
8269, 8265, 8266
8270, 8266, 8267
8271, 8267, 8268
8272, 8268, 8269
8273, 8269, 8270
8274, 8270, 8271
8275, 8271, 8272
8276, 8272, 8273
8277, 8273, 8274
8278, 8274, 8275
8279, 8275,   49
8280,  134, 8276
8281, 8276, 8277
8282, 8277, 8278
8283, 8278, 8279
8284, 8279, 8280
8285, 8280, 8281
8286, 8281, 8282
8287, 8282, 8283
8288, 8283, 8284
8289, 8284, 8285
8290, 8285, 8286
8291, 8286, 8287
8292, 8287, 8288
8293, 8288, 8289
8294, 8289, 8290
8295, 8290, 8291
8296, 8291, 8292
8297, 8292, 8293
8298, 8293, 8294
8299, 8294, 8295
8300, 8295, 8296
8301, 8296, 8297
8302, 8297, 8298
8303, 8298, 8299
8304, 8299, 8300
8305, 8300, 8301
8306, 8301, 8302
8307, 8302, 8303
8308, 8303, 8304
8309, 8304, 8305
8310, 8305, 8306
8311, 8306, 8307
8312, 8307,  133
8313,  135, 8308
8314, 8308, 8309
8315, 8309, 8310
8316, 8310, 8311
8317, 8311, 8312
8318, 8312, 8313
8319, 8313, 8314
8320, 8314, 8315
8321, 8315, 8316
8322, 8316,   52
8323,  136, 8317
8324, 8317, 8318
8325, 8318, 8319
8326, 8319, 8320
8327, 8320, 8321
8328, 8321, 8322
8329, 8322, 8323
8330, 8323, 8324
8331, 8324, 8325
8332, 8325, 8326
8333, 8326, 8327
8334, 8327, 8328
8335, 8328, 8329
8336, 8329, 8330
8337, 8330, 8331
8338, 8331, 8332
8339, 8332, 8333
8340, 8333, 8334
8341, 8334, 8335
8342, 8335, 8336
8343, 8336, 8337
8344, 8337, 8338
8345, 8338, 8339
8346, 8339, 8340
8347, 8340, 8341
8348, 8341, 8342
8349, 8342, 8343
8350, 8343, 8344
8351, 8344, 8345
8352, 8345, 8346
8353, 8346, 8347
8354, 8347, 8348
8355, 8348, 8349
8356, 8349, 8350
8357, 8350, 8351
8358, 8351, 8352
8359, 8352, 8353
8360, 8353, 8354
8361, 8354, 8355
8362, 8355, 8356
8363, 8356, 8357
8364, 8357, 8358
8365, 8358, 8359
8366, 8359, 8360
8367, 8360, 8361
8368, 8361, 8362
8369, 8362, 8363
8370, 8363, 8364
8371, 8364, 8365
8372, 8365, 8366
8373, 8366, 8367
8374, 8367, 8368
8375, 8368, 8369
8376, 8369, 8370
8377, 8370, 8371
8378, 8371, 8372
8379, 8372, 8373
8380, 8373, 8374
8381, 8374, 8375
8382, 8375, 8376
8383, 8376, 8377
8384, 8377, 8378
8385, 8378, 8379
8386, 8379, 8380
8387, 8380, 8381
8388, 8381, 8382
8389, 8382, 8383
8390, 8383, 8384
8391, 8384, 8385
8392, 8385, 8386
8393, 8386, 8387
8394, 8387, 8388
8395, 8388, 8389
8396, 8389,  135
8397,  137, 8390
8398, 8390, 8391
8399, 8391, 8392
8400, 8392, 8393
8401, 8393, 8394
8402, 8394, 8395
8403, 8395, 8396
8404, 8396, 8397
8405, 8397, 8398
8406, 8398, 8399
8407, 8399, 8400
8408, 8400, 8401
8409, 8401, 8402
8410, 8402, 8403
8411, 8403, 8404
8412, 8404, 8405
8413, 8405, 8406
8414, 8406, 8407
8415, 8407, 8408
8416, 8408, 8409
8417, 8409, 8410
8418, 8410, 8411
8419, 8411, 8412
8420, 8412, 8413
8421, 8413, 8414
8422, 8414, 8415
8423, 8415, 8416
8424, 8416, 8417
8425, 8417, 8418
8426, 8418, 8419
8427, 8419, 8420
8428, 8420, 8421
8429, 8421, 8422
8430, 8422, 8423
8431, 8423, 8424
8432, 8424, 8425
8433, 8425, 8426
8434, 8426, 8427
8435, 8427, 8428
8436, 8428, 8429
8437, 8429, 8430
8438, 8430, 8431
8439, 8431, 8432
8440, 8432, 8433
8441, 8433, 8434
8442, 8434, 8435
8443, 8435, 8436
8444, 8436, 8437
8445, 8437, 8438
8446, 8438, 8439
8447, 8439, 8440
8448, 8440, 8441
8449, 8441, 8442
8450, 8442, 8443
8451, 8443, 8444
8452, 8444, 8445
8453, 8445, 8446
8454, 8446, 8447
8455, 8447, 8448
8456, 8448, 8449
8457, 8449, 8450
8458, 8450, 8451
8459, 8451, 8452
8460, 8452, 8453
8461, 8453, 8454
8462, 8454, 8455
8463, 8455, 8456
8464, 8456, 8457
8465, 8457, 8458
8466, 8458, 8459
8467, 8459, 8460
8468, 8460, 8461
8469, 8461, 8462
8470, 8462, 8463
8471, 8463, 8464
8472, 8464, 8465
8473, 8465, 8466
8474, 8466, 8467
8475, 8467, 8468
8476, 8468, 8469
8477, 8469, 8470
8478, 8470, 8471
8479, 8471, 8472
8480, 8472, 8473
8481, 8473, 8474
8482, 8474, 8475
8483, 8475, 8476
8484, 8476, 8477
8485, 8477, 8478
8486, 8478, 8479
8487, 8479, 8480
8488, 8480, 8481
8489, 8481, 8482
8490, 8482, 8483
8491, 8483, 8484
8492, 8484, 8485
8493, 8485, 8486
8494, 8486, 8487
8495, 8487, 8488
8496, 8488, 8489
8497, 8489, 8490
8498, 8490, 8491
8499, 8491, 8492
8500, 8492, 8493
8501, 8493, 8494
8502, 8494, 8495
8503, 8495, 8496
8504, 8496, 8497
8505, 8497, 8498
8506, 8498, 8499
8507, 8499, 8500
8508, 8500, 8501
8509, 8501, 8502
8510, 8502, 8503
8511, 8503, 8504
8512, 8504, 8505
8513, 8505, 8506
8514, 8506, 8507
8515, 8507, 8508
8516, 8508, 8509
8517, 8509, 8510
8518, 8510, 8511
8519, 8511, 8512
8520, 8512, 8513
8521, 8513, 8514
8522, 8514, 8515
8523, 8515, 8516
8524, 8516, 8517
8525, 8517, 8518
8526, 8518,   55
8527,  138, 8519
8528, 8519, 8520
8529, 8520, 8521
8530, 8521, 8522
8531, 8522, 8523
8532, 8523, 8524
8533, 8524, 8525
8534, 8525, 8526
8535, 8526, 8527
8536, 8527, 8528
8537, 8528, 8529
8538, 8529, 8530
8539, 8530, 8531
8540, 8531, 8532
8541, 8532, 8533
8542, 8533, 8534
8543, 8534, 8535
8544, 8535, 8536
8545, 8536, 8537
8546, 8537, 8538
8547, 8538, 8539
8548, 8539, 8540
8549, 8540, 8541
8550, 8541, 8542
8551, 8542, 8543
8552, 8543, 8544
8553, 8544, 8545
8554, 8545, 8546
8555, 8546, 8547
8556, 8547, 8548
8557, 8548, 8549
8558, 8549, 8550
8559, 8550,  137
8560,  139, 8551
8561, 8551, 8552
8562, 8552, 8553
8563, 8553, 8554
8564, 8554, 8555
8565, 8555, 8556
8566, 8556, 8557
8567, 8557, 8558
8568, 8558, 8559
8569, 8559,   58
8570,  140, 8560
8571, 8560, 8561
8572, 8561, 8562
8573, 8562, 8563
8574, 8563, 8564
8575, 8564, 8565
8576, 8565, 8566
8577, 8566, 8567
8578, 8567, 8568
8579, 8568, 8569
8580, 8569, 8570
8581, 8570, 8571
8582, 8571, 8572
8583, 8572, 8573
8584, 8573, 8574
8585, 8574, 8575
8586, 8575, 8576
8587, 8576, 8577
8588, 8577, 8578
8589, 8578, 8579
8590, 8579, 8580
8591, 8580, 8581
8592, 8581, 8582
8593, 8582, 8583
8594, 8583, 8584
8595, 8584, 8585
8596, 8585, 8586
8597, 8586, 8587
8598, 8587, 8588
8599, 8588, 8589
8600, 8589, 8590
8601, 8590, 8591
8602, 8591, 8592
8603, 8592, 8593
8604, 8593, 8594
8605, 8594, 8595
8606, 8595, 8596
8607, 8596, 8597
8608, 8597, 8598
8609, 8598, 8599
8610, 8599, 8600
8611, 8600, 8601
8612, 8601, 8602
8613, 8602, 8603
8614, 8603, 8604
8615, 8604, 8605
8616, 8605, 8606
8617, 8606, 8607
8618, 8607, 8608
8619, 8608, 8609
8620, 8609, 8610
8621, 8610, 8611
8622, 8611, 8612
8623, 8612, 8613
8624, 8613, 8614
8625, 8614, 8615
8626, 8615, 8616
8627, 8616, 8617
8628, 8617, 8618
8629, 8618, 8619
8630, 8619, 8620
8631, 8620, 8621
8632, 8621, 8622
8633, 8622, 8623
8634, 8623, 8624
8635, 8624, 8625
8636, 8625, 8626
8637, 8626, 8627
8638, 8627, 8628
8639, 8628, 8629
8640, 8629, 8630
8641, 8630, 8631
8642, 8631, 8632
8643, 8632,  139
8644,  103, 8633
8645, 8633, 8634
8646, 8634, 8635
8647, 8635, 8636
8648, 8636, 8637
8649, 8637, 8638
8650, 8638, 8639
8651, 8639, 8640
8652, 8640, 8641
8653, 8641, 8642
8654, 8642, 8643
8655, 8643, 8644
8656, 8644, 8645
8657, 8645, 8646
8658, 8646, 8647
8659, 8647, 8648
8660, 8648, 8649
8661, 8649, 8650
8662, 8650, 8651
8663, 8651, 8652
8664, 8652, 8653
8665, 8653, 8654
8666, 8654, 8655
8667, 8655, 8656
8668, 8656, 8657
8669, 8657, 8658
8670, 8658, 8659
8671, 8659, 8660
8672, 8660, 8661
8673, 8661, 8662
8674, 8662, 8663
8675, 8663, 8664
8676, 8664, 8665
8677, 8665, 8666
8678, 8666, 8667
8679, 8667, 8668
8680, 8668, 8669
8681, 8669, 8670
8682, 8670, 8671
8683, 8671, 8672
8684, 8672, 8673
8685, 8673, 8674
8686, 8674, 8675
8687, 8675, 8676
8688, 8676, 8677
8689, 8677, 8678
8690, 8678, 8679
8691, 8679, 8680
8692, 8680, 8681
8693, 8681, 8682
8694, 8682, 8683
8695, 8683, 8684
8696, 8684, 8685
8697, 8685, 8686
8698, 8686, 8687
8699, 8687, 8688
8700, 8688, 8689
8701, 8689, 8690
8702, 8690, 8691
8703, 8691, 8692
8704, 8692, 8693
8705, 8693, 8694
8706, 8694, 8695
8707, 8695, 8696
8708, 8696, 8697
8709, 8697, 8698
8710, 8698, 8699
8711, 8699, 8700
8712, 8700, 8701
8713, 8701, 8702
8714, 8702, 8703
8715, 8703, 8704
8716, 8704, 8705
8717, 8705, 8706
8718, 8706, 8707
8719, 8707, 8708
8720, 8708, 8709
8721, 8709, 8710
8722, 8710, 8711
8723, 8711, 8712
8724, 8712, 8713
8725, 8713, 8714
8726, 8714, 8715
8727, 8715, 8716
8728, 8716, 8717
8729, 8717, 8718
8730, 8718, 8719
8731, 8719, 8720
8732, 8720, 8721
8733, 8721, 8722
8734, 8722, 8723
8735, 8723, 8724
8736, 8724, 8725
8737, 8725, 8726
8738, 8726, 8727
8739, 8727, 8728
8740, 8728, 8729
8741, 8729, 8730
8742, 8730, 8731
8743, 8731, 8732
8744, 8732, 8733
8745, 8733, 8734
8746, 8734, 8735
8747, 8735, 8736
8748, 8736, 8737
8749, 8737, 8738
8750, 8738, 8739
8751, 8739, 8740
8752, 8740, 8741
8753, 8741, 8742
8754, 8742, 8743
8755, 8743, 8744
8756, 8744, 8745
8757, 8745, 8746
8758, 8746, 8747
8759, 8747, 8748
8760, 8748, 8749
8761, 8749, 8750
8762, 8750, 8751
8763, 8751, 8752
8764, 8752, 8753
8765, 8753, 8754
8766, 8754, 8755
8767, 8755, 8756
8768, 8756, 8757
8769, 8757, 8758
8770, 8758, 8759
8771, 8759, 8760
8772, 8760, 8761
8773, 8761, 8762
8774, 8762, 8763
8775, 8763, 8764
8776, 8764, 8765
8777, 8765, 8766
8778, 8766, 8767
8779, 8767, 8768
8780, 8768, 8769
8781, 8769, 8770
8782, 8770, 8771
8783, 8771, 8772
8784, 8772, 8773
8785, 8773, 8774
8786, 8774, 8775
8787, 8775, 8776
8788, 8776, 8777
8789, 8777, 8778
8790, 8778, 8779
8791, 8779, 8780
8792, 8780, 8781
8793, 8781, 8782
8794, 8782, 8783
8795, 8783, 8784
8796, 8784, 8785
8797, 8785, 8786
8798, 8786, 8787
8799, 8787, 8788
8800, 8788, 8789
8801, 8789, 8790
8802, 8790, 8791
8803, 8791, 8792
8804, 8792, 8793
8805, 8793, 8794
8806, 8794, 8795
8807, 8795, 8796
8808, 8796, 8797
8809, 8797, 8798
8810, 8798, 8799
8811, 8799, 8800
8812, 8800, 8801
8813, 8801, 8802
8814, 8802, 8803
8815, 8803, 8804
8816, 8804, 8805
8817, 8805, 8806
8818, 8806, 8807
8819, 8807,   61
8820,  127, 8808
8821, 8808, 8809
8822, 8809, 8810
8823, 8810, 8811
8824, 8811, 8812
8825, 8812, 8813
8826, 8813, 8814
8827, 8814, 8815
8828, 8815, 8816
8829, 8816, 8817
8830, 8817, 8818
8831, 8818, 8819
8832, 8819, 8820
8833, 8820, 8821
8834, 8821, 8822
8835, 8822, 8823
8836, 8823, 8824
8837, 8824, 8825
8838, 8825, 8826
8839, 8826, 8827
8840, 8827, 8828
8841, 8828, 8829
8842, 8829, 8830
8843, 8830, 8831
8844, 8831, 8832
8845, 8832, 8833
8846, 8833, 8834
8847, 8834, 8835
8848, 8835, 8836
8849, 8836, 8837
8850, 8837, 8838
8851, 8838, 8839
8852, 8839, 8840
8853, 8840, 8841
8854, 8841, 8842
8855, 8842, 8843
8856, 8843, 8844
8857, 8844, 8845
8858, 8845, 8846
8859, 8846, 8847
8860, 8847, 8848
8861, 8848, 8849
8862, 8849, 8850
8863, 8850, 8851
8864, 8851, 8852
8865, 8852, 8853
8866, 8853, 8854
8867, 8854, 8855
8868, 8855, 8856
8869, 8856, 8857
8870, 8857, 8858
8871, 8858, 8859
8872, 8859, 8860
8873, 8860, 8861
8874, 8861, 8862
8875, 8862, 8863
8876, 8863, 8864
8877, 8864, 8865
8878, 8865, 8866
8879, 8866, 8867
8880, 8867, 8868
8881, 8868, 8869
8882, 8869, 8870
8883, 8870, 8871
8884, 8871, 8872
8885, 8872, 8873
8886, 8873, 8874
8887, 8874, 8875
8888, 8875, 8876
8889, 8876, 8877
8890, 8877, 8878
8891, 8878, 8879
8892, 8879, 8880
8893, 8880, 8881
8894, 8881, 8882
8895, 8882, 8883
8896, 8883, 8884
8897, 8884, 8885
8898, 8885, 8886
8899, 8886, 8887
8900, 8887, 8888
8901, 8888, 8889
8902, 8889, 8890
8903, 8890, 8891
8904, 8891, 8892
8905, 8892, 8893
8906, 8893, 8894
8907, 8894, 8895
8908, 8895, 8896
8909, 8896, 8897
8910, 8897, 8898
8911, 8898, 8899
8912, 8899, 8900
8913, 8900, 8901
8914, 8901, 8902
8915, 8902, 8903
8916, 8903, 8904
8917, 8904, 8905
8918, 8905, 8906
8919, 8906, 8907
8920, 8907, 8908
8921, 8908, 8909
8922, 8909, 8910
8923, 8910, 8911
8924, 8911, 8912
8925, 8912, 8913
8926, 8913, 8914
8927, 8914, 8915
8928, 8915, 8916
8929, 8916, 8917
8930, 8917, 8918
8931, 8918, 8919
8932, 8919, 8920
8933, 8920, 8921
8934, 8921, 8922
8935, 8922, 8923
8936, 8923, 8924
8937, 8924, 8925
8938, 8925, 8926
8939, 8926, 8927
8940, 8927, 8928
8941, 8928, 8929
8942, 8929, 8930
8943, 8930, 8931
8944, 8931, 8932
8945, 8932, 8933
8946, 8933, 8934
8947, 8934, 8935
8948, 8935, 8936
8949, 8936, 8937
8950, 8937, 8938
8951, 8938, 8939
8952, 8939, 8940
8953, 8940, 8941
8954, 8941, 8942
8955, 8942, 8943
8956, 8943, 8944
8957, 8944, 8945
8958, 8945, 8946
8959, 8946, 8947
8960, 8947, 8948
8961, 8948, 8949
8962, 8949, 8950
8963, 8950, 8951
8964, 8951, 8952
8965, 8952, 8953
8966, 8953, 8954
8967, 8954, 8955
8968, 8955, 8956
8969, 8956, 8957
8970, 8957, 8958
8971, 8958, 8959
8972, 8959, 8960
8973, 8960, 8961
8974, 8961, 8962
8975, 8962, 8963
8976, 8963, 8964
8977, 8964, 8965
8978, 8965, 8966
8979, 8966, 8967
8980, 8967, 8968
8981, 8968, 8969
8982, 8969, 8970
8983, 8970, 8971
8984, 8971, 8972
8985, 8972, 8973
8986, 8973, 8974
8987, 8974, 8975
8988, 8975, 8976
8989, 8976, 8977
8990, 8977, 8978
8991, 8978, 8979
8992, 8979, 8980
8993, 8980, 8981
8994, 8981, 8982
8995, 8982,  125
8996,  131, 8983
8997, 8983, 8984
8998, 8984, 8985
8999, 8985, 8986
9000, 8986, 8987
9001, 8987, 8988
9002, 8988, 8989
9003, 8989, 8990
9004, 8990, 8991
9005, 8991, 8992
9006, 8992, 8993
9007, 8993, 8994
9008, 8994, 8995
9009, 8995, 8996
9010, 8996, 8997
9011, 8997, 8998
9012, 8998, 8999
9013, 8999, 9000
9014, 9000, 9001
9015, 9001, 9002
9016, 9002, 9003
9017, 9003, 9004
9018, 9004, 9005
9019, 9005, 9006
9020, 9006, 9007
9021, 9007, 9008
9022, 9008, 9009
9023, 9009, 9010
9024, 9010, 9011
9025, 9011, 9012
9026, 9012, 9013
9027, 9013, 9014
9028, 9014, 9015
9029, 9015, 9016
9030, 9016, 9017
9031, 9017, 9018
9032, 9018, 9019
9033, 9019, 9020
9034, 9020, 9021
9035, 9021, 9022
9036, 9022, 9023
9037, 9023, 9024
9038, 9024, 9025
9039, 9025, 9026
9040, 9026, 9027
9041, 9027, 9028
9042, 9028, 9029
9043, 9029, 9030
9044, 9030, 9031
9045, 9031, 9032
9046, 9032, 9033
9047, 9033, 9034
9048, 9034, 9035
9049, 9035, 9036
9050, 9036, 9037
9051, 9037, 9038
9052, 9038, 9039
9053, 9039, 9040
9054, 9040, 9041
9055, 9041, 9042
9056, 9042, 9043
9057, 9043, 9044
9058, 9044, 9045
9059, 9045, 9046
9060, 9046, 9047
9061, 9047, 9048
9062, 9048, 9049
9063, 9049, 9050
9064, 9050, 9051
9065, 9051, 9052
9066, 9052, 9053
9067, 9053, 9054
9068, 9054, 9055
9069, 9055, 9056
9070, 9056, 9057
9071, 9057, 9058
9072, 9058, 9059
9073, 9059, 9060
9074, 9060, 9061
9075, 9061, 9062
9076, 9062, 9063
9077, 9063, 9064
9078, 9064, 9065
9079, 9065, 9066
9080, 9066, 9067
9081, 9067, 9068
9082, 9068, 9069
9083, 9069, 9070
9084, 9070, 9071
9085, 9071, 9072
9086, 9072, 9073
9087, 9073, 9074
9088, 9074, 9075
9089, 9075, 9076
9090, 9076, 9077
9091, 9077, 9078
9092, 9078, 9079
9093, 9079, 9080
9094, 9080, 9081
9095, 9081, 9082
9096, 9082, 9083
9097, 9083, 9084
9098, 9084, 9085
9099, 9085, 9086
9100, 9086, 9087
9101, 9087, 9088
9102, 9088, 9089
9103, 9089, 9090
9104, 9090, 9091
9105, 9091, 9092
9106, 9092, 9093
9107, 9093, 9094
9108, 9094, 9095
9109, 9095, 9096
9110, 9096, 9097
9111, 9097, 9098
9112, 9098, 9099
9113, 9099, 9100
9114, 9100, 9101
9115, 9101, 9102
9116, 9102, 9103
9117, 9103, 9104
9118, 9104, 9105
9119, 9105, 9106
9120, 9106, 9107
9121, 9107, 9108
9122, 9108, 9109
9123, 9109, 9110
9124, 9110, 9111
9125, 9111, 9112
9126, 9112, 9113
9127, 9113, 9114
9128, 9114, 9115
9129, 9115, 9116
9130, 9116, 9117
9131, 9117, 9118
9132, 9118, 9119
9133, 9119, 9120
9134, 9120, 9121
9135, 9121, 9122
9136, 9122, 9123
9137, 9123, 9124
9138, 9124, 9125
9139, 9125, 9126
9140, 9126, 9127
9141, 9127, 9128
9142, 9128, 9129
9143, 9129, 9130
9144, 9130, 9131
9145, 9131, 9132
9146, 9132, 9133
9147, 9133, 9134
9148, 9134, 9135
9149, 9135, 9136
9150, 9136, 9137
9151, 9137, 9138
9152, 9138, 9139
9153, 9139, 9140
9154, 9140, 9141
9155, 9141, 9142
9156, 9142, 9143
9157, 9143, 9144
9158, 9144, 9145
9159, 9145, 9146
9160, 9146, 9147
9161, 9147, 9148
9162, 9148, 9149
9163, 9149, 9150
9164, 9150, 9151
9165, 9151, 9152
9166, 9152, 9153
9167, 9153, 9154
9168, 9154, 9155
9169, 9155, 9156
9170, 9156, 9157
9171, 9157,  129
9172,  135, 9158
9173, 9158, 9159
9174, 9159, 9160
9175, 9160, 9161
9176, 9161, 9162
9177, 9162, 9163
9178, 9163, 9164
9179, 9164, 9165
9180, 9165, 9166
9181, 9166, 9167
9182, 9167, 9168
9183, 9168, 9169
9184, 9169, 9170
9185, 9170, 9171
9186, 9171, 9172
9187, 9172, 9173
9188, 9173, 9174
9189, 9174, 9175
9190, 9175, 9176
9191, 9176, 9177
9192, 9177, 9178
9193, 9178, 9179
9194, 9179, 9180
9195, 9180, 9181
9196, 9181, 9182
9197, 9182, 9183
9198, 9183, 9184
9199, 9184, 9185
9200, 9185, 9186
9201, 9186, 9187
9202, 9187, 9188
9203, 9188, 9189
9204, 9189, 9190
9205, 9190, 9191
9206, 9191, 9192
9207, 9192, 9193
9208, 9193, 9194
9209, 9194, 9195
9210, 9195, 9196
9211, 9196, 9197
9212, 9197, 9198
9213, 9198, 9199
9214, 9199, 9200
9215, 9200, 9201
9216, 9201, 9202
9217, 9202, 9203
9218, 9203, 9204
9219, 9204, 9205
9220, 9205, 9206
9221, 9206, 9207
9222, 9207, 9208
9223, 9208, 9209
9224, 9209, 9210
9225, 9210, 9211
9226, 9211, 9212
9227, 9212, 9213
9228, 9213, 9214
9229, 9214, 9215
9230, 9215, 9216
9231, 9216, 9217
9232, 9217, 9218
9233, 9218, 9219
9234, 9219, 9220
9235, 9220, 9221
9236, 9221, 9222
9237, 9222, 9223
9238, 9223, 9224
9239, 9224, 9225
9240, 9225, 9226
9241, 9226, 9227
9242, 9227, 9228
9243, 9228, 9229
9244, 9229, 9230
9245, 9230, 9231
9246, 9231, 9232
9247, 9232, 9233
9248, 9233, 9234
9249, 9234, 9235
9250, 9235, 9236
9251, 9236, 9237
9252, 9237, 9238
9253, 9238, 9239
9254, 9239, 9240
9255, 9240, 9241
9256, 9241, 9242
9257, 9242, 9243
9258, 9243, 9244
9259, 9244, 9245
9260, 9245, 9246
9261, 9246, 9247
9262, 9247, 9248
9263, 9248, 9249
9264, 9249, 9250
9265, 9250, 9251
9266, 9251, 9252
9267, 9252, 9253
9268, 9253, 9254
9269, 9254, 9255
9270, 9255, 9256
9271, 9256, 9257
9272, 9257, 9258
9273, 9258, 9259
9274, 9259, 9260
9275, 9260, 9261
9276, 9261, 9262
9277, 9262, 9263
9278, 9263, 9264
9279, 9264, 9265
9280, 9265, 9266
9281, 9266, 9267
9282, 9267, 9268
9283, 9268, 9269
9284, 9269, 9270
9285, 9270, 9271
9286, 9271, 9272
9287, 9272, 9273
9288, 9273, 9274
9289, 9274, 9275
9290, 9275, 9276
9291, 9276, 9277
9292, 9277, 9278
9293, 9278, 9279
9294, 9279, 9280
9295, 9280, 9281
9296, 9281, 9282
9297, 9282, 9283
9298, 9283, 9284
9299, 9284, 9285
9300, 9285, 9286
9301, 9286, 9287
9302, 9287, 9288
9303, 9288, 9289
9304, 9289, 9290
9305, 9290, 9291
9306, 9291, 9292
9307, 9292, 9293
9308, 9293, 9294
9309, 9294, 9295
9310, 9295, 9296
9311, 9296, 9297
9312, 9297, 9298
9313, 9298, 9299
9314, 9299, 9300
9315, 9300, 9301
9316, 9301, 9302
9317, 9302, 9303
9318, 9303, 9304
9319, 9304, 9305
9320, 9305, 9306
9321, 9306, 9307
9322, 9307, 9308
9323, 9308, 9309
9324, 9309, 9310
9325, 9310, 9311
9326, 9311, 9312
9327, 9312, 9313
9328, 9313, 9314
9329, 9314, 9315
9330, 9315, 9316
9331, 9316, 9317
9332, 9317, 9318
9333, 9318, 9319
9334, 9319, 9320
9335, 9320, 9321
9336, 9321, 9322
9337, 9322, 9323
9338, 9323, 9324
9339, 9324, 9325
9340, 9325, 9326
9341, 9326, 9327
9342, 9327, 9328
9343, 9328, 9329
9344, 9329, 9330
9345, 9330, 9331
9346, 9331, 9332
9347, 9332,  133
9348,  139, 9333
9349, 9333, 9334
9350, 9334, 9335
9351, 9335, 9336
9352, 9336, 9337
9353, 9337, 9338
9354, 9338, 9339
9355, 9339, 9340
9356, 9340, 9341
9357, 9341, 9342
9358, 9342, 9343
9359, 9343, 9344
9360, 9344, 9345
9361, 9345, 9346
9362, 9346, 9347
9363, 9347, 9348
9364, 9348, 9349
9365, 9349, 9350
9366, 9350, 9351
9367, 9351, 9352
9368, 9352, 9353
9369, 9353, 9354
9370, 9354, 9355
9371, 9355, 9356
9372, 9356, 9357
9373, 9357, 9358
9374, 9358, 9359
9375, 9359, 9360
9376, 9360, 9361
9377, 9361, 9362
9378, 9362, 9363
9379, 9363, 9364
9380, 9364, 9365
9381, 9365, 9366
9382, 9366, 9367
9383, 9367, 9368
9384, 9368, 9369
9385, 9369, 9370
9386, 9370, 9371
9387, 9371, 9372
9388, 9372, 9373
9389, 9373, 9374
9390, 9374, 9375
9391, 9375, 9376
9392, 9376, 9377
9393, 9377, 9378
9394, 9378, 9379
9395, 9379, 9380
9396, 9380, 9381
9397, 9381, 9382
9398, 9382, 9383
9399, 9383, 9384
9400, 9384, 9385
9401, 9385, 9386
9402, 9386, 9387
9403, 9387, 9388
9404, 9388, 9389
9405, 9389, 9390
9406, 9390, 9391
9407, 9391, 9392
9408, 9392, 9393
9409, 9393, 9394
9410, 9394, 9395
9411, 9395, 9396
9412, 9396, 9397
9413, 9397, 9398
9414, 9398, 9399
9415, 9399, 9400
9416, 9400, 9401
9417, 9401, 9402
9418, 9402, 9403
9419, 9403, 9404
9420, 9404, 9405
9421, 9405, 9406
9422, 9406, 9407
9423, 9407, 9408
9424, 9408, 9409
9425, 9409, 9410
9426, 9410, 9411
9427, 9411, 9412
9428, 9412, 9413
9429, 9413, 9414
9430, 9414, 9415
9431, 9415, 9416
9432, 9416, 9417
9433, 9417, 9418
9434, 9418, 9419
9435, 9419, 9420
9436, 9420, 9421
9437, 9421, 9422
9438, 9422, 9423
9439, 9423, 9424
9440, 9424, 9425
9441, 9425, 9426
9442, 9426, 9427
9443, 9427, 9428
9444, 9428, 9429
9445, 9429, 9430
9446, 9430, 9431
9447, 9431, 9432
9448, 9432, 9433
9449, 9433, 9434
9450, 9434, 9435
9451, 9435, 9436
9452, 9436, 9437
9453, 9437, 9438
9454, 9438, 9439
9455, 9439, 9440
9456, 9440, 9441
9457, 9441, 9442
9458, 9442, 9443
9459, 9443, 9444
9460, 9444, 9445
9461, 9445, 9446
9462, 9446, 9447
9463, 9447, 9448
9464, 9448, 9449
9465, 9449, 9450
9466, 9450, 9451
9467, 9451, 9452
9468, 9452, 9453
9469, 9453, 9454
9470, 9454, 9455
9471, 9455, 9456
9472, 9456, 9457
9473, 9457, 9458
9474, 9458, 9459
9475, 9459, 9460
9476, 9460, 9461
9477, 9461, 9462
9478, 9462, 9463
9479, 9463, 9464
9480, 9464, 9465
9481, 9465, 9466
9482, 9466, 9467
9483, 9467, 9468
9484, 9468, 9469
9485, 9469, 9470
9486, 9470, 9471
9487, 9471, 9472
9488, 9472, 9473
9489, 9473, 9474
9490, 9474, 9475
9491, 9475, 9476
9492, 9476, 9477
9493, 9477, 9478
9494, 9478, 9479
9495, 9479, 9480
9496, 9480, 9481
9497, 9481, 9482
9498, 9482, 9483
9499, 9483, 9484
9500, 9484, 9485
9501, 9485, 9486
9502, 9486, 9487
9503, 9487, 9488
9504, 9488, 9489
9505, 9489, 9490
9506, 9490, 9491
9507, 9491, 9492
9508, 9492, 9493
9509, 9493, 9494
9510, 9494, 9495
9511, 9495, 9496
9512, 9496, 9497
9513, 9497, 9498
9514, 9498, 9499
9515, 9499, 9500
9516, 9500, 9501
9517, 9501, 9502
9518, 9502, 9503
9519, 9503, 9504
9520, 9504, 9505
9521, 9505, 9506
9522, 9506, 9507
9523, 9507,  137
*Nset, nset=P2
    2,    3,    5,    9,   15,   21,   27,   28,   29,   30,   31,   32,   33,   34,   35,   36
   37,   38,   39,   40,   41,   42,   43,   44,   45,   46,   47,   48,   49,   50,   51,   52
   53,   54,   55,   56,   57,   58,   59,   60,  173,  174,  175,  176,  177,  178,  179,  180
  181,  182,  183,  184,  185,  186,  187,  188,  189,  190,  191,  192,  193,  194,  195,  196
  197,  198,  199,  200,  201,  202,  203,  204,  205,  206,  207,  208,  209,  210,  211,  277
  278,  279,  280,  281,  282,  283,  284,  285,  286,  287,  288,  289,  290,  291,  292,  293
  294,  295,  296,  297,  298,  299,  300,  301, 1633, 1634, 1635, 1636, 1637, 1638, 1639, 1640
 1641, 1642, 1643, 1644, 1645, 1646, 1647, 1648, 1649, 1650, 1651, 1652, 1653, 1654, 1655, 1656
 1657, 1658, 1659, 1660, 1661, 1662, 1663, 1664, 1665, 1666, 1667, 1668, 1669, 1670, 1671, 1672
 1673, 1674, 1675, 1676, 1677, 1678, 1679, 1680, 1681, 1682, 1683, 1684, 1685, 1686, 1687, 1688
 1689, 1690, 1691, 1692, 1693, 1694, 1695, 1696, 1697, 1698, 1699, 1700, 1701, 1702, 1703, 1704
 1705, 1706, 1707, 1708, 1709, 1710, 1711, 1712, 1713, 1714, 1715, 1716, 1717, 1718, 1719, 1720
 1721, 1722, 1723, 1724, 1725, 1726, 1727, 1728, 1729, 1730, 1731, 1732, 1733, 1734, 1735, 1736
 1737, 1738, 1739, 1740, 1741, 1742, 1743, 1744, 1745, 1746, 1747, 1748, 1749, 1750, 1751, 1752
 1753, 1754, 1755, 1756, 1757, 1758, 1759, 1760, 1761, 1762, 1763, 1764, 1765, 1766, 1767, 1768
 1769, 1770, 1771, 1772, 1773, 1774, 1775, 1776, 1777, 1778, 1779, 1780, 1781, 1782, 1783, 1784
 1785, 1786, 1787, 1788, 1789, 1790, 1791, 1792, 1793, 1794, 1795, 1796, 1797, 1798, 1799, 1800
 1801, 1802, 1803, 1804, 1805, 1806, 1807, 1808, 1809, 1810, 1811, 1812, 1813, 1814, 1815, 1816
 1817, 1818, 1819, 1820, 1821, 1822, 1823, 1824, 1825, 1826, 1827, 1828, 1829, 1830, 1831, 1832
 1833, 1834, 1835, 1836, 1837, 1838, 1839, 1840, 1841, 1842, 1843, 1844, 1845, 1846, 1847, 1848
 1849, 1850, 1851, 1852, 1853, 1854, 1855, 1856, 1857, 1858, 1859, 1860, 1861, 1862, 1863, 1864
 1865, 1866, 1867, 1868, 1869, 1870, 1871, 1872, 1873, 1874, 1875, 1876, 1877, 1878, 1879, 1880
 1881, 1882, 1883, 1884, 1885, 1886, 1887, 1888, 1889, 1890, 1891, 1892, 1893, 1894, 1895, 1896
 1897, 1898, 1899, 1900, 1901, 1902, 1903, 1904, 1905, 1906, 1907, 1908, 1909, 1910, 1911, 1912
 1913, 1914, 1915, 1916, 1917, 1918, 1919, 1920, 1921, 1922, 1923, 1924, 1925, 1926, 1927, 1928
 1929, 1930, 1931, 1932, 1933, 1934, 1935, 1936, 1937, 1938, 1939, 1940, 1941, 1942, 1943, 1944
 1945, 1946, 1947, 1948, 1949, 1950, 1951, 1952, 1953, 1954, 1955, 1956, 1957, 1958, 1959, 1960
 1961, 1962, 1963, 1964, 1965, 1966, 1967, 1968, 1969, 1970, 1971, 1972, 1973, 1974, 1975, 1976
 1977, 1978, 1979, 1980, 1981, 1982, 1983, 1984, 1985, 1986, 1987, 1988, 1989, 1990, 1991, 1992
 1993, 1994, 1995, 1996, 1997, 1998, 1999, 2000, 2001, 2002, 2003, 2004, 2005, 2006, 2007, 2008
 2009, 2010, 2011, 2012, 2013, 2014, 2015, 2016, 2017, 2018, 2019, 2020, 2021, 2022, 2023, 2024
 2025, 2026, 2027, 2028, 2029, 2030, 2031, 2032, 2033, 2034, 2035, 2036, 2037, 2038, 2039, 2040
 2041, 2042, 2043, 2044, 2045, 2046, 2047, 2048, 2049, 2050, 2051, 2052, 2053, 2054, 2055, 2056
 2057, 2058, 2059, 2060, 2061, 2062, 2063, 2064, 2065, 2066, 2067, 2068, 2069, 2070, 2071, 2072
 2073, 2074, 2075, 2076, 2077, 2078, 2079, 2080, 2081, 2082, 2083, 2084, 2085, 2086, 2087, 2088
 2089, 2090, 2091, 2092, 2093, 2094, 2095, 2096, 2097, 2098, 2099, 2100, 2101, 2102, 2103, 2104
 2105, 2106, 2107, 2108, 2109, 2110, 2111, 2112, 2113, 2114, 2115, 2116, 2117, 2118, 2119, 2120
 2121, 2122, 2123, 2124, 2125, 2126, 2127, 2128, 2129, 2130, 2131, 2132, 2133, 2134, 2135, 2136
 2137, 2138, 2139, 2140, 2141, 2142, 2143, 2144, 2145, 2146, 2147, 2148, 2149, 2150, 2151, 2152
 2153, 2154, 2155, 2156, 2157, 2158, 2159, 2160, 2161, 2162, 2163, 2164, 2165, 2166, 2167, 2168
 2169, 2170, 2171, 2172, 2173, 2174, 2175, 2176, 2177, 2178, 2179, 2180, 2181, 2182, 2183, 2184
 2185, 2186, 2187, 2188, 2189, 2190, 2191, 2192, 2193, 2194, 2195, 2196, 2197, 2198, 2199, 2200
 2201, 2202, 2203, 2204, 2205, 2206, 2207, 2208, 2209, 2210, 2211, 2212, 2213, 2214, 2215, 2216
 2217, 2218, 2219, 2220, 2221, 2222, 2223, 2224, 2225, 2226, 2227, 2228, 2229, 2230, 2231, 2232
 2233, 2234, 2235, 2236, 2237, 2238, 2239, 2240, 2241, 2242, 2243, 2244, 2245, 2246, 2247, 2248
 2249, 2250, 2251, 2252, 2253, 2254, 2255, 2256, 2257, 2258, 2259, 2260, 2261, 2262, 2263, 2264
 2265, 2266, 2267, 2268, 2269, 2270, 2271, 2272, 2273, 2274, 2275, 2276, 2277, 2278, 2279, 2280
 2281, 2282, 2283, 2284, 2285, 2286, 2287, 2288, 2289, 2290, 2291, 2292, 2293, 2294, 2295, 2296
 2297, 2298, 2299, 2300, 2301, 2302, 2303, 2304, 2305, 2306, 2307, 2308, 2309, 2310, 2311, 2312
 2313, 2314, 2315, 2316, 2317, 2318, 2319, 2320, 2321, 2322, 2323, 2324, 2325, 2326, 2327, 2328
 2329, 2330, 2331, 2332, 2333, 2334, 2335, 2336, 2337, 2338, 2339, 2340, 2341, 2342, 2343, 2344
 2345, 2346, 2347, 2348, 2349, 2350, 2351, 2352, 2353, 2354, 2355, 2356, 2357, 2358, 2359, 2360
 2361, 2362, 2363, 2364, 2365, 2366, 2367, 2368, 2369, 2370, 2371, 2372, 2373, 2374, 2375, 2376
 2377, 2378, 2379, 2380, 2381, 2382, 2383, 2384, 2385, 2386, 2387, 2388, 2389, 2390, 2391, 2392
 2393, 2394, 2395, 2396, 2397, 2398, 2399, 2400, 2401, 2402, 2403, 2404, 2405, 2406, 2407, 2408
 2409, 2410, 2411, 2412, 2413, 2414, 2415, 2416, 2417, 2418, 2419, 2420, 2421, 2422, 2423, 2424
 2425, 2426, 2427, 2428, 2429, 2430, 2431, 2432, 2433, 2434, 2435, 2436, 2437, 2438, 2439, 2440
 2441, 2442, 2443, 2444, 2445, 2446, 2447, 2448, 2449, 2450, 2451, 2452, 2453, 2454, 2455, 2456
 2457, 2458, 2459, 2460, 2461, 2462, 2463, 2464, 2465, 2466, 2467, 2468, 2469, 2470, 2471, 2472
 2473, 2474, 2475, 2476, 2477, 2478, 2479, 2480, 2481, 2482, 2483, 2484, 2485, 2486, 2487, 2488
 2489, 2490, 2491, 2492, 2493, 2494, 2495, 2496, 2497, 2498, 2499, 2500, 2501, 2502, 2503, 2504
 2505, 2506, 2507, 2508, 2509, 2510, 2511, 2512, 2513, 2514, 2515, 2516, 2517, 2518, 2519, 2520
 2521, 2522, 2523, 2524, 2525, 2526, 2527, 2528, 2529, 2530, 2531, 2532, 2533, 2534, 2535, 2536
 2537, 2538, 2539, 2540, 2541, 2542, 2543, 2544, 2545, 2546, 2547, 2548, 2549, 2550, 2551, 2552
 2553, 2554, 2555, 2556, 2557, 2558, 2559, 2560, 2561, 2562, 2563, 2564, 2565, 2566, 2567, 2568
 2569, 2570, 2571, 2572, 2573, 2574, 2575, 2576, 2577, 2578, 2579, 2580, 2581, 2582, 2583, 2584
 2585, 2586, 2587, 2588, 2589, 2590, 2591, 2592, 2593, 2594, 2595, 2596, 2597, 2598, 2599, 2600
 2601, 2602, 2603, 2604, 2605, 2606, 2607, 2608, 2609, 2610, 2611, 2612, 2613, 2614, 2615, 2616
 2617, 2618, 2619, 2620, 2621, 2622, 2623, 2624, 2625, 2626, 2627, 2628, 2629, 2630, 2631, 2632
 2633, 2634, 2635, 2636, 2637, 2638, 2639, 2640, 2641, 2642, 2643, 2644, 2645, 2646, 2647, 2648
 2649, 2650, 2651, 2652, 2653, 2654, 2655, 2656, 2657, 2658, 2659, 2660, 2661, 2662, 2663, 2664
 2665, 2666, 2667, 2668, 2669, 2670, 2671, 2672, 2673, 2674, 2675, 2676, 2677, 2678, 2679, 2680
 2681, 2682, 2683, 2684, 2685, 2686, 2687, 2688, 2689, 2690, 2691, 2692, 2693, 2694, 2695, 2696
 2697, 2698, 2699, 2700, 2701, 2702, 2703, 2704, 2705, 2706, 2707, 2708, 2709, 2710, 2711, 2712
 2713, 2714, 2715, 2716, 2717, 2718, 2719, 2720, 2721, 2722, 2723, 2724, 2725, 2726, 2727, 2728
 2729, 2730, 2731, 2732, 2733, 2734, 2735, 2736, 2737, 2738, 2739, 2740, 2741, 2742, 2743, 2744
 2745, 2746, 2747, 2748, 2749, 2750, 2751, 2752, 2753, 2754, 2755, 2756, 2757, 2758, 2759, 2760
 2761, 2762, 2763, 2764, 2765, 2766, 2767, 2768, 2769, 2770, 2771, 2772, 2773, 2774, 2775, 2776
 2777, 2778, 2779, 2780, 2781, 2782, 2783, 2784, 2785, 2786, 2787, 2788, 2789, 2790, 2791, 2792
 2793, 2794, 2795, 2796, 2797, 2798, 2799, 2800, 2801, 2802, 2803, 2804, 2805, 2806, 2807, 2808
 2809, 2810, 2811, 2812, 2813, 2814, 2815, 2816, 2817, 2818, 2819, 2820, 2821, 2822, 2823, 2824
 2825, 2826, 2827, 2828, 2829, 2830, 2831, 2832, 2833, 2834, 2835, 2836, 2837, 2838, 2839, 2840
 2841, 2842, 2843, 2844, 2845, 2846, 2847, 2848, 2849, 2850, 2851, 2852, 2853, 2854, 2855, 2856
 2857, 2858, 2859, 2860, 2861, 2862, 2863, 2864, 2865, 2866, 2867, 2868, 2869, 2870, 2871, 2872
 2873, 2874, 2875, 2876, 2877, 2878, 2879, 2880, 2881, 2882, 2883, 2884, 2885, 2886, 2887, 2888
 2889, 2890, 2891, 2892, 2893, 2894, 2895, 2896, 2897, 2898, 2899, 2900, 2901, 2902, 2903, 2904
 2905, 2906, 2907, 2908, 2909, 2910, 2911, 2912, 2913, 2914, 2915, 2916, 2917, 2918, 2919, 2920
 2921, 2922, 2923, 2924, 2925, 2926, 2927, 2928, 2929, 2930, 2931, 2932, 2933, 2934, 2935, 2936
 2937, 2938, 2939, 2940, 2941, 2942, 2943, 2944, 2945, 2946, 2947, 2948, 2949, 2950, 2951, 2952
 2953, 2954, 2955, 2956, 2957, 2958, 2959, 2960, 2961, 2962, 2963, 2964, 2965, 2966, 2967, 2968
 2969, 2970, 2971, 2972, 2973, 2974, 2975, 2976, 2977, 2978, 2979, 2980, 2981, 2982, 2983, 2984
 2985, 2986, 2987, 2988, 2989, 2990, 2991, 2992, 2993, 2994, 2995, 2996, 2997, 2998, 2999, 3000
 3001, 3002, 3003, 3004, 3005, 3006, 3007, 3008, 3009, 3010, 3011, 3012, 3013, 3014, 3015, 3016
 3017, 3018, 3019, 3020, 3021, 3022, 3023, 3024, 3025, 3026, 3027, 3028, 3029, 3030, 3031, 3032
 3033, 3034, 3035, 3036, 3037, 3038, 3039, 3040, 3041, 3042, 3043, 3044, 3045, 3046, 3047, 3048
 3049, 3050, 3051, 3052, 3053, 3054, 3055, 3056, 3057, 3058, 3059, 3060, 3061, 3062, 3063, 3064
 3065, 3066, 3067, 3068, 3069, 3070, 3071, 3072, 3073, 3074, 3075, 3076, 3077, 3078, 3079, 3080
 3081, 3082, 3083, 3084, 3085, 3086, 3087, 3088, 3089, 3090, 3091, 3092, 3093, 3094, 3095, 3096
 3097, 3098, 3099, 3100, 3101, 3102, 3103, 3104, 3105, 3106, 3107, 3108, 3109, 3110, 3111, 3112
 3113, 3114, 3115, 3116, 3117, 3118, 3119, 3120, 3121, 3122, 3123, 3124, 3125, 3126, 3127, 3128
 3129, 3130, 3131, 3132, 3133
*Elset, elset=P2
   34,   35,   36,   37,   38,   39,   40,   41,   42,   43,   44,   45,   46,   47,   48,   49
   50,   51,   52,   53,   54,   55,   56,   57,   58,   59,   60,   61,   62,   63,   64,   65
   66,   67,   68,   69,   70,   71,   72,   73,  140,  141,  142,  143,  144,  145,  146,  147
  148,  149,  150,  151,  152,  153,  154,  155,  156,  157,  158,  159,  160,  161,  162,  163
  164,  165, 1519, 1520, 1521, 1522, 1523, 1524, 1525, 1526, 1527, 1528, 1529, 1530, 1531, 1532
 1533, 1534, 1535, 1536, 1537, 1538, 1539, 1540, 1541, 1542, 1543, 1544, 1545, 1546, 1547, 1548
 1549, 1550, 1551, 1552, 1553, 1554, 1555, 1556, 1557, 1558, 1559, 1560, 1561, 1562, 1563, 1564
 1565, 1566, 1567, 1568, 1569, 1570, 1571, 1572, 1573, 1574, 1575, 1576, 1577, 1578, 1579, 1580
 1581, 1582, 1583, 1584, 1585, 1586, 1587, 1588, 1589, 1590, 1591, 1592, 1593, 1594, 1595, 1596
 1597, 1598, 1599, 1600, 1601, 1602, 1603, 1604, 1605, 1606, 1607, 1608, 1609, 1610, 1611, 1612
 1613, 1614, 1615, 1616, 1617, 1618, 1619, 1620, 1621, 1622, 1623, 1624, 1625, 1626, 1627, 1628
 1629, 1630, 1631, 1632, 1633, 1634, 1635, 1636, 1637, 1638, 1639, 1640, 1641, 1642, 1643, 1644
 1645, 1646, 1647, 1648, 1649, 1650, 1651, 1652, 1653, 1654, 1655, 1656, 1657, 1658, 1659, 1660
 1661, 1662, 1663, 1664, 1665, 1666, 1667, 1668, 1669, 1670, 1671, 1672, 1673, 1674, 1675, 1676
 1677, 1678, 1679, 1680, 1681, 1682, 1683, 1684, 1685, 1686, 1687, 1688, 1689, 1690, 1691, 1692
 1693, 1694, 1695, 1696, 1697, 1698, 1699, 1700, 1701, 1702, 1703, 1704, 1705, 1706, 1707, 1708
 1709, 1710, 1711, 1712, 1713, 1714, 1715, 1716, 1717, 1718, 1719, 1720, 1721, 1722, 1723, 1724
 1725, 1726, 1727, 1728, 1729, 1730, 1731, 1732, 1733, 1734, 1735, 1736, 1737, 1738, 1739, 1740
 1741, 1742, 1743, 1744, 1745, 1746, 1747, 1748, 1749, 1750, 1751, 1752, 1753, 1754, 1755, 1756
 1757, 1758, 1759, 1760, 1761, 1762, 1763, 1764, 1765, 1766, 1767, 1768, 1769, 1770, 1771, 1772
 1773, 1774, 1775, 1776, 1777, 1778, 1779, 1780, 1781, 1782, 1783, 1784, 1785, 1786, 1787, 1788
 1789, 1790, 1791, 1792, 1793, 1794, 1795, 1796, 1797, 1798, 1799, 1800, 1801, 1802, 1803, 1804
 1805, 1806, 1807, 1808, 1809, 1810, 1811, 1812, 1813, 1814, 1815, 1816, 1817, 1818, 1819, 1820
 1821, 1822, 1823, 1824, 1825, 1826, 1827, 1828, 1829, 1830, 1831, 1832, 1833, 1834, 1835, 1836
 1837, 1838, 1839, 1840, 1841, 1842, 1843, 1844, 1845, 1846, 1847, 1848, 1849, 1850, 1851, 1852
 1853, 1854, 1855, 1856, 1857, 1858, 1859, 1860, 1861, 1862, 1863, 1864, 1865, 1866, 1867, 1868
 1869, 1870, 1871, 1872, 1873, 1874, 1875, 1876, 1877, 1878, 1879, 1880, 1881, 1882, 1883, 1884
 1885, 1886, 1887, 1888, 1889, 1890, 1891, 1892, 1893, 1894, 1895, 1896, 1897, 1898, 1899, 1900
 1901, 1902, 1903, 1904, 1905, 1906, 1907, 1908, 1909, 1910, 1911, 1912, 1913, 1914, 1915, 1916
 1917, 1918, 1919, 1920, 1921, 1922, 1923, 1924, 1925, 1926, 1927, 1928, 1929, 1930, 1931, 1932
 1933, 1934, 1935, 1936, 1937, 1938, 1939, 1940, 1941, 1942, 1943, 1944, 1945, 1946, 1947, 1948
 1949, 1950, 1951, 1952, 1953, 1954, 1955, 1956, 1957, 1958, 1959, 1960, 1961, 1962, 1963, 1964
 1965, 1966, 1967, 1968, 1969, 1970, 1971, 1972, 1973, 1974, 1975, 1976, 1977, 1978, 1979, 1980
 1981, 1982, 1983, 1984, 1985, 1986, 1987, 1988, 1989, 1990, 1991, 1992, 1993, 1994, 1995, 1996
 1997, 1998, 1999, 2000, 2001, 2002, 2003, 2004, 2005, 2006, 2007, 2008, 2009, 2010, 2011, 2012
 2013, 2014, 2015, 2016, 2017, 2018, 2019, 2020, 2021, 2022, 2023, 2024, 2025, 2026, 2027, 2028
 2029, 2030, 2031, 2032, 2033, 2034, 2035, 2036, 2037, 2038, 2039, 2040, 2041, 2042, 2043, 2044
 2045, 2046, 2047, 2048, 2049, 2050, 2051, 2052, 2053, 2054, 2055, 2056, 2057, 2058, 2059, 2060
 2061, 2062, 2063, 2064, 2065, 2066, 2067, 2068, 2069, 2070, 2071, 2072, 2073, 2074, 2075, 2076
 2077, 2078, 2079, 2080, 2081, 2082, 2083, 2084, 2085, 2086, 2087, 2088, 2089, 2090, 2091, 2092
 2093, 2094, 2095, 2096, 2097, 2098, 2099, 2100, 2101, 2102, 2103, 2104, 2105, 2106, 2107, 2108
 2109, 2110, 2111, 2112, 2113, 2114, 2115, 2116, 2117, 2118, 2119, 2120, 2121, 2122, 2123, 2124
 2125, 2126, 2127, 2128, 2129, 2130, 2131, 2132, 2133, 2134, 2135, 2136, 2137, 2138, 2139, 2140
 2141, 2142, 2143, 2144, 2145, 2146, 2147, 2148, 2149, 2150, 2151, 2152, 2153, 2154, 2155, 2156
 2157, 2158, 2159, 2160, 2161, 2162, 2163, 2164, 2165, 2166, 2167, 2168, 2169, 2170, 2171, 2172
 2173, 2174, 2175, 2176, 2177, 2178, 2179, 2180, 2181, 2182, 2183, 2184, 2185, 2186, 2187, 2188
 2189, 2190, 2191, 2192, 2193, 2194, 2195, 2196, 2197, 2198, 2199, 2200, 2201, 2202, 2203, 2204
 2205, 2206, 2207, 2208, 2209, 2210, 2211, 2212, 2213, 2214, 2215, 2216, 2217, 2218, 2219, 2220
 2221, 2222, 2223, 2224, 2225, 2226, 2227, 2228, 2229, 2230, 2231, 2232, 2233, 2234, 2235, 2236
 2237, 2238, 2239, 2240, 2241, 2242, 2243, 2244, 2245, 2246, 2247, 2248, 2249, 2250, 2251, 2252
 2253, 2254, 2255, 2256, 2257, 2258, 2259, 2260, 2261, 2262, 2263, 2264, 2265, 2266, 2267, 2268
 2269, 2270, 2271, 2272, 2273, 2274, 2275, 2276, 2277, 2278, 2279, 2280, 2281, 2282, 2283, 2284
 2285, 2286, 2287, 2288, 2289, 2290, 2291, 2292, 2293, 2294, 2295, 2296, 2297, 2298, 2299, 2300
 2301, 2302, 2303, 2304, 2305, 2306, 2307, 2308, 2309, 2310, 2311, 2312, 2313, 2314, 2315, 2316
 2317, 2318, 2319, 2320, 2321, 2322, 2323, 2324, 2325, 2326, 2327, 2328, 2329, 2330, 2331, 2332
 2333, 2334, 2335, 2336, 2337, 2338, 2339, 2340, 2341, 2342, 2343, 2344, 2345, 2346, 2347, 2348
 2349, 2350, 2351, 2352, 2353, 2354, 2355, 2356, 2357, 2358, 2359, 2360, 2361, 2362, 2363, 2364
 2365, 2366, 2367, 2368, 2369, 2370, 2371, 2372, 2373, 2374, 2375, 2376, 2377, 2378, 2379, 2380
 2381, 2382, 2383, 2384, 2385, 2386, 2387, 2388, 2389, 2390, 2391, 2392, 2393, 2394, 2395, 2396
 2397, 2398, 2399, 2400, 2401, 2402, 2403, 2404, 2405, 2406, 2407, 2408, 2409, 2410, 2411, 2412
 2413, 2414, 2415, 2416, 2417, 2418, 2419, 2420, 2421, 2422, 2423, 2424, 2425, 2426, 2427, 2428
 2429, 2430, 2431, 2432, 2433, 2434, 2435, 2436, 2437, 2438, 2439, 2440, 2441, 2442, 2443, 2444
 2445, 2446, 2447, 2448, 2449, 2450, 2451, 2452, 2453, 2454, 2455, 2456, 2457, 2458, 2459, 2460
 2461, 2462, 2463, 2464, 2465, 2466, 2467, 2468, 2469, 2470, 2471, 2472, 2473, 2474, 2475, 2476
 2477, 2478, 2479, 2480, 2481, 2482, 2483, 2484, 2485, 2486, 2487, 2488, 2489, 2490, 2491, 2492
 2493, 2494, 2495, 2496, 2497, 2498, 2499, 2500, 2501, 2502, 2503, 2504, 2505, 2506, 2507, 2508
 2509, 2510, 2511, 2512, 2513, 2514, 2515, 2516, 2517, 2518, 2519, 2520, 2521, 2522, 2523, 2524
 2525, 2526, 2527, 2528, 2529, 2530, 2531, 2532, 2533, 2534, 2535, 2536, 2537, 2538, 2539, 2540
 2541, 2542, 2543, 2544, 2545, 2546, 2547, 2548, 2549, 2550, 2551, 2552, 2553, 2554, 2555, 2556
 2557, 2558, 2559, 2560, 2561, 2562, 2563, 2564, 2565, 2566, 2567, 2568, 2569, 2570, 2571, 2572
 2573, 2574, 2575, 2576, 2577, 2578, 2579, 2580, 2581, 2582, 2583, 2584, 2585, 2586, 2587, 2588
 2589, 2590, 2591, 2592, 2593, 2594, 2595, 2596, 2597, 2598, 2599, 2600, 2601, 2602, 2603, 2604
 2605, 2606, 2607, 2608, 2609, 2610, 2611, 2612, 2613, 2614, 2615, 2616, 2617, 2618, 2619, 2620
 2621, 2622, 2623, 2624, 2625, 2626, 2627, 2628, 2629, 2630, 2631, 2632, 2633, 2634, 2635, 2636
 2637, 2638, 2639, 2640, 2641, 2642, 2643, 2644, 2645, 2646, 2647, 2648, 2649, 2650, 2651, 2652
 2653, 2654, 2655, 2656, 2657, 2658, 2659, 2660, 2661, 2662, 2663, 2664, 2665, 2666, 2667, 2668
 2669, 2670, 2671, 2672, 2673, 2674, 2675, 2676, 2677, 2678, 2679, 2680, 2681, 2682, 2683, 2684
 2685, 2686, 2687, 2688, 2689, 2690, 2691, 2692, 2693, 2694, 2695, 2696, 2697, 2698, 2699, 2700
 2701, 2702, 2703, 2704, 2705, 2706, 2707, 2708, 2709, 2710, 2711, 2712, 2713, 2714, 2715, 2716
 2717, 2718, 2719, 2720, 2721, 2722, 2723, 2724, 2725, 2726, 2727, 2728, 2729, 2730, 2731, 2732
 2733, 2734, 2735, 2736, 2737, 2738, 2739, 2740, 2741, 2742, 2743, 2744, 2745, 2746, 2747, 2748
 2749, 2750, 2751, 2752, 2753, 2754, 2755, 2756, 2757, 2758, 2759, 2760, 2761, 2762, 2763, 2764
 2765, 2766, 2767, 2768, 2769, 2770, 2771, 2772, 2773, 2774, 2775, 2776, 2777, 2778, 2779, 2780
 2781, 2782, 2783, 2784, 2785, 2786, 2787, 2788, 2789, 2790, 2791, 2792, 2793, 2794, 2795, 2796
 2797, 2798, 2799, 2800, 2801, 2802, 2803, 2804, 2805, 2806, 2807, 2808, 2809, 2810, 2811, 2812
 2813, 2814, 2815, 2816, 2817, 2818, 2819, 2820, 2821, 2822, 2823, 2824, 2825, 2826, 2827, 2828
 2829, 2830, 2831, 2832, 2833, 2834, 2835, 2836, 2837, 2838, 2839, 2840, 2841, 2842, 2843, 2844
 2845, 2846, 2847, 2848, 2849, 2850, 2851, 2852, 2853, 2854, 2855, 2856, 2857, 2858, 2859, 2860
 2861, 2862, 2863, 2864, 2865, 2866, 2867, 2868, 2869, 2870, 2871, 2872, 2873, 2874, 2875, 2876
 2877, 2878, 2879, 2880, 2881, 2882, 2883, 2884, 2885, 2886, 2887, 2888, 2889, 2890, 2891, 2892
 2893, 2894, 2895, 2896, 2897, 2898, 2899, 2900, 2901, 2902, 2903, 2904, 2905, 2906, 2907, 2908
 2909, 2910, 2911, 2912, 2913, 2914, 2915, 2916, 2917, 2918, 2919, 2920, 2921, 2922, 2923, 2924
 2925, 2926, 2927, 2928, 2929, 2930, 2931, 2932, 2933, 2934, 2935, 2936, 2937, 2938, 2939, 2940
 2941, 2942, 2943, 2944, 2945, 2946, 2947, 2948, 2949, 2950, 2951, 2952, 2953, 2954, 2955, 2956
 2957, 2958, 2959, 2960, 2961, 2962, 2963, 2964, 2965, 2966, 2967, 2968, 2969, 2970, 2971, 2972
 2973, 2974, 2975, 2976, 2977, 2978, 2979, 2980, 2981, 2982, 2983, 2984, 2985, 2986, 2987, 2988
 2989, 2990, 2991, 2992, 2993, 2994, 2995, 2996, 2997, 2998, 2999, 3000, 3001, 3002, 3003, 3004
 3005, 3006, 3007, 3008, 3009, 3010, 3011, 3012, 3013, 3014, 3015, 3016, 3017, 3018, 3019, 3020
 3021, 3022, 3023, 3024, 3025, 3026, 3027, 3028, 3029, 3030, 3031, 3032, 3033, 3034, 3035, 3036
 3037, 3038, 3039, 3040, 3041, 3042, 3043, 3044, 3045, 3046, 3047, 3048, 3049, 3050, 3051, 3052
*Nset, nset=P3
   31,   38,   45,   52,   58,  103,  104,  127,  128,  131,  132,  135,  136,  139,  140, 6151
 6152, 6153, 6154, 6155, 6156, 6157, 6158, 6159, 6160, 6161, 6162, 6163, 6164, 6165, 6166, 6167
 6168, 6169, 6170, 6171, 6172, 6173, 6174, 6175, 6176, 6177, 6178, 6179, 6180, 6181, 6182, 6183
 6184, 6185, 6186, 6187, 6188, 6189, 6190, 6191, 6192, 6193, 6194, 6195, 6196, 6197, 6198, 6199
 6200, 6201, 6202, 6203, 6204, 6205, 6206, 6207, 6208, 6209, 6210, 6211, 6212, 6213, 6214, 6215
 6216, 6217, 6218, 6219, 6220, 6221, 6222, 6223, 6224, 6225, 6226, 6227, 6228, 6229, 6230, 6231
 6232, 7822, 7823, 7824, 7825, 7826, 7827, 7828, 7829, 7830, 7831, 7832, 7833, 7834, 7835, 7836
 7837, 7838, 7839, 7840, 7841, 7842, 7843, 7844, 7845, 7846, 7847, 7848, 7849, 7850, 7851, 7852
 7853, 7854, 7855, 7856, 7857, 7858, 7859, 7860, 7861, 7862, 7863, 7864, 7865, 7866, 7867, 7868
 7869, 7870, 7871, 7872, 7873, 7874, 7875, 7876, 7877, 7878, 7879, 7880, 7881, 7882, 7883, 7884
 7885, 7886, 7887, 7888, 7889, 7890, 7891, 7892, 7893, 7894, 7895, 7896, 7897, 7898, 7899, 7900
 7901, 7902, 7903, 8065, 8066, 8067, 8068, 8069, 8070, 8071, 8072, 8073, 8074, 8075, 8076, 8077
 8078, 8079, 8080, 8081, 8082, 8083, 8084, 8085, 8086, 8087, 8088, 8089, 8090, 8091, 8092, 8093
 8094, 8095, 8096, 8097, 8098, 8099, 8100, 8101, 8102, 8103, 8104, 8105, 8106, 8107, 8108, 8109
 8110, 8111, 8112, 8113, 8114, 8115, 8116, 8117, 8118, 8119, 8120, 8121, 8122, 8123, 8124, 8125
 8126, 8127, 8128, 8129, 8130, 8131, 8132, 8133, 8134, 8135, 8136, 8137, 8138, 8139, 8140, 8141
 8142, 8143, 8144, 8145, 8146, 8308, 8309, 8310, 8311, 8312, 8313, 8314, 8315, 8316, 8317, 8318
 8319, 8320, 8321, 8322, 8323, 8324, 8325, 8326, 8327, 8328, 8329, 8330, 8331, 8332, 8333, 8334
 8335, 8336, 8337, 8338, 8339, 8340, 8341, 8342, 8343, 8344, 8345, 8346, 8347, 8348, 8349, 8350
 8351, 8352, 8353, 8354, 8355, 8356, 8357, 8358, 8359, 8360, 8361, 8362, 8363, 8364, 8365, 8366
 8367, 8368, 8369, 8370, 8371, 8372, 8373, 8374, 8375, 8376, 8377, 8378, 8379, 8380, 8381, 8382
 8383, 8384, 8385, 8386, 8387, 8388, 8389, 8551, 8552, 8553, 8554, 8555, 8556, 8557, 8558, 8559
 8560, 8561, 8562, 8563, 8564, 8565, 8566, 8567, 8568, 8569, 8570, 8571, 8572, 8573, 8574, 8575
 8576, 8577, 8578, 8579, 8580, 8581, 8582, 8583, 8584, 8585, 8586, 8587, 8588, 8589, 8590, 8591
 8592, 8593, 8594, 8595, 8596, 8597, 8598, 8599, 8600, 8601, 8602, 8603, 8604, 8605, 8606, 8607
 8608, 8609, 8610, 8611, 8612, 8613, 8614, 8615, 8616, 8617, 8618, 8619, 8620, 8621, 8622, 8623
 8624, 8625, 8626, 8627, 8628, 8629, 8630, 8631, 8632
*Elset, elset=P3
 6120, 6121, 6122, 6123, 6124, 6125, 6126, 6127, 6128, 6129, 6130, 6131, 6132, 6133, 6134, 6135
 6136, 6137, 6138, 6139, 6140, 6141, 6142, 6143, 6144, 6145, 6146, 6147, 6148, 6149, 6150, 6151
 6152, 6153, 6154, 6155, 6156, 6157, 6158, 6159, 6160, 6161, 6162, 6163, 6164, 6165, 6166, 6167
 6168, 6169, 6170, 6171, 6172, 6173, 6174, 6175, 6176, 6177, 6178, 6179, 6180, 6181, 6182, 6183
 6184, 6185, 6186, 6187, 6188, 6189, 6190, 6191, 6192, 6193, 6194, 6195, 6196, 6197, 6198, 6199
 6200, 6201, 6202, 6203, 7819, 7820, 7821, 7822, 7823, 7824, 7825, 7826, 7827, 7828, 7829, 7830
 7831, 7832, 7833, 7834, 7835, 7836, 7837, 7838, 7839, 7840, 7841, 7842, 7843, 7844, 7845, 7846
 7847, 7848, 7849, 7850, 7851, 7852, 7853, 7854, 7855, 7856, 7857, 7858, 7859, 7860, 7861, 7862
 7863, 7864, 7865, 7866, 7867, 7868, 7869, 7870, 7871, 7872, 7873, 7874, 7875, 7876, 7877, 7878
 7879, 7880, 7881, 7882, 7883, 7884, 7885, 7886, 7887, 7888, 7889, 7890, 7891, 7892, 7893, 7894
 7895, 7896, 7897, 7898, 7899, 7900, 7901, 7902, 8066, 8067, 8068, 8069, 8070, 8071, 8072, 8073
 8074, 8075, 8076, 8077, 8078, 8079, 8080, 8081, 8082, 8083, 8084, 8085, 8086, 8087, 8088, 8089
 8090, 8091, 8092, 8093, 8094, 8095, 8096, 8097, 8098, 8099, 8100, 8101, 8102, 8103, 8104, 8105
 8106, 8107, 8108, 8109, 8110, 8111, 8112, 8113, 8114, 8115, 8116, 8117, 8118, 8119, 8120, 8121
 8122, 8123, 8124, 8125, 8126, 8127, 8128, 8129, 8130, 8131, 8132, 8133, 8134, 8135, 8136, 8137
 8138, 8139, 8140, 8141, 8142, 8143, 8144, 8145, 8146, 8147, 8148, 8149, 8313, 8314, 8315, 8316
 8317, 8318, 8319, 8320, 8321, 8322, 8323, 8324, 8325, 8326, 8327, 8328, 8329, 8330, 8331, 8332
 8333, 8334, 8335, 8336, 8337, 8338, 8339, 8340, 8341, 8342, 8343, 8344, 8345, 8346, 8347, 8348
 8349, 8350, 8351, 8352, 8353, 8354, 8355, 8356, 8357, 8358, 8359, 8360, 8361, 8362, 8363, 8364
 8365, 8366, 8367, 8368, 8369, 8370, 8371, 8372, 8373, 8374, 8375, 8376, 8377, 8378, 8379, 8380
 8381, 8382, 8383, 8384, 8385, 8386, 8387, 8388, 8389, 8390, 8391, 8392, 8393, 8394, 8395, 8396
 8560, 8561, 8562, 8563, 8564, 8565, 8566, 8567, 8568, 8569, 8570, 8571, 8572, 8573, 8574, 8575
 8576, 8577, 8578, 8579, 8580, 8581, 8582, 8583, 8584, 8585, 8586, 8587, 8588, 8589, 8590, 8591
 8592, 8593, 8594, 8595, 8596, 8597, 8598, 8599, 8600, 8601, 8602, 8603, 8604, 8605, 8606, 8607
 8608, 8609, 8610, 8611, 8612, 8613, 8614, 8615, 8616, 8617, 8618, 8619, 8620, 8621, 8622, 8623
 8624, 8625, 8626, 8627, 8628, 8629, 8630, 8631, 8632, 8633, 8634, 8635, 8636, 8637, 8638, 8639
 8640, 8641, 8642, 8643
*Nset, nset=P4
    5,   35,   42,   49,   55,   61,   62,  125,  126,  129,  130,  133,  134,  137,  138, 3134
 3135, 3136, 3137, 3138, 3139, 3140, 3141, 3142, 3143, 3144, 3145, 3146, 3147, 3148, 3149, 3150
 3151, 3152, 3153, 3154, 3155, 3156, 3157, 3158, 3159, 3160, 3161, 3162, 3163, 3164, 3165, 3166
 3167, 3168, 3169, 3170, 3171, 3172, 3173, 3174, 3175, 3176, 3177, 3178, 3179, 3180, 3181, 3182
 3183, 3184, 3185, 3186, 3187, 3188, 3189, 3190, 3191, 3192, 3193, 3194, 3195, 3196, 3197, 3198
 3199, 3200, 3201, 3202, 3203, 3204, 3205, 3206, 3207, 3208, 3209, 3210, 3211, 3212, 3213, 3214
 3215, 3216, 3217, 3218, 3219, 3220, 3221, 3222, 3223, 3224, 3225, 3226, 3227, 3228, 3229, 3230
 3231, 3232, 3233, 3234, 3235, 3236, 3237, 3238, 3239, 3240, 3241, 3242, 3243, 3244, 3245, 3246
 3247, 3248, 3249, 3250, 3251, 3252, 3253, 3254, 3255, 3256, 3257, 3258, 3259, 3260, 3261, 3262
 3263, 3264, 3265, 3266, 3267, 3268, 3269, 3270, 3271, 3272, 3273, 3274, 3275, 3276, 3277, 3278
 3279, 3280, 3281, 3282, 3283, 3284, 3285, 3286, 3287, 3288, 3289, 3290, 3291, 3292, 3293, 3294
 7661, 7662, 7663, 7664, 7665, 7666, 7667, 7668, 7669, 7670, 7671, 7672, 7673, 7674, 7675, 7676
 7677, 7678, 7679, 7680, 7681, 7682, 7683, 7684, 7685, 7686, 7687, 7688, 7689, 7690, 7691, 7692
 7693, 7694, 7695, 7696, 7697, 7698, 7699, 7700, 7701, 7702, 7703, 7704, 7705, 7706, 7707, 7708
 7709, 7710, 7711, 7712, 7713, 7714, 7715, 7716, 7717, 7718, 7719, 7720, 7721, 7722, 7723, 7724
 7725, 7726, 7727, 7728, 7729, 7730, 7731, 7732, 7733, 7734, 7735, 7736, 7737, 7738, 7739, 7740
 7741, 7742, 7743, 7744, 7745, 7746, 7747, 7748, 7749, 7750, 7751, 7752, 7753, 7754, 7755, 7756
 7757, 7758, 7759, 7760, 7761, 7762, 7763, 7764, 7765, 7766, 7767, 7768, 7769, 7770, 7771, 7772
 7773, 7774, 7775, 7776, 7777, 7778, 7779, 7780, 7781, 7782, 7783, 7784, 7785, 7786, 7787, 7788
 7789, 7790, 7791, 7792, 7793, 7794, 7795, 7796, 7797, 7798, 7799, 7800, 7801, 7802, 7803, 7804
 7805, 7806, 7807, 7808, 7809, 7810, 7811, 7812, 7813, 7814, 7815, 7816, 7817, 7818, 7819, 7820
 7821, 7904, 7905, 7906, 7907, 7908, 7909, 7910, 7911, 7912, 7913, 7914, 7915, 7916, 7917, 7918
 7919, 7920, 7921, 7922, 7923, 7924, 7925, 7926, 7927, 7928, 7929, 7930, 7931, 7932, 7933, 7934
 7935, 7936, 7937, 7938, 7939, 7940, 7941, 7942, 7943, 7944, 7945, 7946, 7947, 7948, 7949, 7950
 7951, 7952, 7953, 7954, 7955, 7956, 7957, 7958, 7959, 7960, 7961, 7962, 7963, 7964, 7965, 7966
 7967, 7968, 7969, 7970, 7971, 7972, 7973, 7974, 7975, 7976, 7977, 7978, 7979, 7980, 7981, 7982
 7983, 7984, 7985, 7986, 7987, 7988, 7989, 7990, 7991, 7992, 7993, 7994, 7995, 7996, 7997, 7998
 7999, 8000, 8001, 8002, 8003, 8004, 8005, 8006, 8007, 8008, 8009, 8010, 8011, 8012, 8013, 8014
 8015, 8016, 8017, 8018, 8019, 8020, 8021, 8022, 8023, 8024, 8025, 8026, 8027, 8028, 8029, 8030
 8031, 8032, 8033, 8034, 8035, 8036, 8037, 8038, 8039, 8040, 8041, 8042, 8043, 8044, 8045, 8046
 8047, 8048, 8049, 8050, 8051, 8052, 8053, 8054, 8055, 8056, 8057, 8058, 8059, 8060, 8061, 8062
 8063, 8064, 8147, 8148, 8149, 8150, 8151, 8152, 8153, 8154, 8155, 8156, 8157, 8158, 8159, 8160
 8161, 8162, 8163, 8164, 8165, 8166, 8167, 8168, 8169, 8170, 8171, 8172, 8173, 8174, 8175, 8176
 8177, 8178, 8179, 8180, 8181, 8182, 8183, 8184, 8185, 8186, 8187, 8188, 8189, 8190, 8191, 8192
 8193, 8194, 8195, 8196, 8197, 8198, 8199, 8200, 8201, 8202, 8203, 8204, 8205, 8206, 8207, 8208
 8209, 8210, 8211, 8212, 8213, 8214, 8215, 8216, 8217, 8218, 8219, 8220, 8221, 8222, 8223, 8224
 8225, 8226, 8227, 8228, 8229, 8230, 8231, 8232, 8233, 8234, 8235, 8236, 8237, 8238, 8239, 8240
 8241, 8242, 8243, 8244, 8245, 8246, 8247, 8248, 8249, 8250, 8251, 8252, 8253, 8254, 8255, 8256
 8257, 8258, 8259, 8260, 8261, 8262, 8263, 8264, 8265, 8266, 8267, 8268, 8269, 8270, 8271, 8272
 8273, 8274, 8275, 8276, 8277, 8278, 8279, 8280, 8281, 8282, 8283, 8284, 8285, 8286, 8287, 8288
 8289, 8290, 8291, 8292, 8293, 8294, 8295, 8296, 8297, 8298, 8299, 8300, 8301, 8302, 8303, 8304
 8305, 8306, 8307, 8390, 8391, 8392, 8393, 8394, 8395, 8396, 8397, 8398, 8399, 8400, 8401, 8402
 8403, 8404, 8405, 8406, 8407, 8408, 8409, 8410, 8411, 8412, 8413, 8414, 8415, 8416, 8417, 8418
 8419, 8420, 8421, 8422, 8423, 8424, 8425, 8426, 8427, 8428, 8429, 8430, 8431, 8432, 8433, 8434
 8435, 8436, 8437, 8438, 8439, 8440, 8441, 8442, 8443, 8444, 8445, 8446, 8447, 8448, 8449, 8450
 8451, 8452, 8453, 8454, 8455, 8456, 8457, 8458, 8459, 8460, 8461, 8462, 8463, 8464, 8465, 8466
 8467, 8468, 8469, 8470, 8471, 8472, 8473, 8474, 8475, 8476, 8477, 8478, 8479, 8480, 8481, 8482
 8483, 8484, 8485, 8486, 8487, 8488, 8489, 8490, 8491, 8492, 8493, 8494, 8495, 8496, 8497, 8498
 8499, 8500, 8501, 8502, 8503, 8504, 8505, 8506, 8507, 8508, 8509, 8510, 8511, 8512, 8513, 8514
 8515, 8516, 8517, 8518, 8519, 8520, 8521, 8522, 8523, 8524, 8525, 8526, 8527, 8528, 8529, 8530
 8531, 8532, 8533, 8534, 8535, 8536, 8537, 8538, 8539, 8540, 8541, 8542, 8543, 8544, 8545, 8546
 8547, 8548, 8549, 8550
*Elset, elset=P4
 3053, 3054, 3055, 3056, 3057, 3058, 3059, 3060, 3061, 3062, 3063, 3064, 3065, 3066, 3067, 3068
 3069, 3070, 3071, 3072, 3073, 3074, 3075, 3076, 3077, 3078, 3079, 3080, 3081, 3082, 3083, 3084
 3085, 3086, 3087, 3088, 3089, 3090, 3091, 3092, 3093, 3094, 3095, 3096, 3097, 3098, 3099, 3100
 3101, 3102, 3103, 3104, 3105, 3106, 3107, 3108, 3109, 3110, 3111, 3112, 3113, 3114, 3115, 3116
 3117, 3118, 3119, 3120, 3121, 3122, 3123, 3124, 3125, 3126, 3127, 3128, 3129, 3130, 3131, 3132
 3133, 3134, 3135, 3136, 3137, 3138, 3139, 3140, 3141, 3142, 3143, 3144, 3145, 3146, 3147, 3148
 3149, 3150, 3151, 3152, 3153, 3154, 3155, 3156, 3157, 3158, 3159, 3160, 3161, 3162, 3163, 3164
 3165, 3166, 3167, 3168, 3169, 3170, 3171, 3172, 3173, 3174, 3175, 3176, 3177, 3178, 3179, 3180
 3181, 3182, 3183, 3184, 3185, 3186, 3187, 3188, 3189, 3190, 3191, 3192, 3193, 3194, 3195, 3196
 3197, 3198, 3199, 3200, 3201, 3202, 3203, 3204, 3205, 3206, 3207, 3208, 3209, 3210, 3211, 3212
 3213, 3214, 3215, 7656, 7657, 7658, 7659, 7660, 7661, 7662, 7663, 7664, 7665, 7666, 7667, 7668
 7669, 7670, 7671, 7672, 7673, 7674, 7675, 7676, 7677, 7678, 7679, 7680, 7681, 7682, 7683, 7684
 7685, 7686, 7687, 7688, 7689, 7690, 7691, 7692, 7693, 7694, 7695, 7696, 7697, 7698, 7699, 7700
 7701, 7702, 7703, 7704, 7705, 7706, 7707, 7708, 7709, 7710, 7711, 7712, 7713, 7714, 7715, 7716
 7717, 7718, 7719, 7720, 7721, 7722, 7723, 7724, 7725, 7726, 7727, 7728, 7729, 7730, 7731, 7732
 7733, 7734, 7735, 7736, 7737, 7738, 7739, 7740, 7741, 7742, 7743, 7744, 7745, 7746, 7747, 7748
 7749, 7750, 7751, 7752, 7753, 7754, 7755, 7756, 7757, 7758, 7759, 7760, 7761, 7762, 7763, 7764
 7765, 7766, 7767, 7768, 7769, 7770, 7771, 7772, 7773, 7774, 7775, 7776, 7777, 7778, 7779, 7780
 7781, 7782, 7783, 7784, 7785, 7786, 7787, 7788, 7789, 7790, 7791, 7792, 7793, 7794, 7795, 7796
 7797, 7798, 7799, 7800, 7801, 7802, 7803, 7804, 7805, 7806, 7807, 7808, 7809, 7810, 7811, 7812
 7813, 7814, 7815, 7816, 7817, 7818, 7903, 7904, 7905, 7906, 7907, 7908, 7909, 7910, 7911, 7912
 7913, 7914, 7915, 7916, 7917, 7918, 7919, 7920, 7921, 7922, 7923, 7924, 7925, 7926, 7927, 7928
 7929, 7930, 7931, 7932, 7933, 7934, 7935, 7936, 7937, 7938, 7939, 7940, 7941, 7942, 7943, 7944
 7945, 7946, 7947, 7948, 7949, 7950, 7951, 7952, 7953, 7954, 7955, 7956, 7957, 7958, 7959, 7960
 7961, 7962, 7963, 7964, 7965, 7966, 7967, 7968, 7969, 7970, 7971, 7972, 7973, 7974, 7975, 7976
 7977, 7978, 7979, 7980, 7981, 7982, 7983, 7984, 7985, 7986, 7987, 7988, 7989, 7990, 7991, 7992
 7993, 7994, 7995, 7996, 7997, 7998, 7999, 8000, 8001, 8002, 8003, 8004, 8005, 8006, 8007, 8008
 8009, 8010, 8011, 8012, 8013, 8014, 8015, 8016, 8017, 8018, 8019, 8020, 8021, 8022, 8023, 8024
 8025, 8026, 8027, 8028, 8029, 8030, 8031, 8032, 8033, 8034, 8035, 8036, 8037, 8038, 8039, 8040
 8041, 8042, 8043, 8044, 8045, 8046, 8047, 8048, 8049, 8050, 8051, 8052, 8053, 8054, 8055, 8056
 8057, 8058, 8059, 8060, 8061, 8062, 8063, 8064, 8065, 8150, 8151, 8152, 8153, 8154, 8155, 8156
 8157, 8158, 8159, 8160, 8161, 8162, 8163, 8164, 8165, 8166, 8167, 8168, 8169, 8170, 8171, 8172
 8173, 8174, 8175, 8176, 8177, 8178, 8179, 8180, 8181, 8182, 8183, 8184, 8185, 8186, 8187, 8188
 8189, 8190, 8191, 8192, 8193, 8194, 8195, 8196, 8197, 8198, 8199, 8200, 8201, 8202, 8203, 8204
 8205, 8206, 8207, 8208, 8209, 8210, 8211, 8212, 8213, 8214, 8215, 8216, 8217, 8218, 8219, 8220
 8221, 8222, 8223, 8224, 8225, 8226, 8227, 8228, 8229, 8230, 8231, 8232, 8233, 8234, 8235, 8236
 8237, 8238, 8239, 8240, 8241, 8242, 8243, 8244, 8245, 8246, 8247, 8248, 8249, 8250, 8251, 8252
 8253, 8254, 8255, 8256, 8257, 8258, 8259, 8260, 8261, 8262, 8263, 8264, 8265, 8266, 8267, 8268
 8269, 8270, 8271, 8272, 8273, 8274, 8275, 8276, 8277, 8278, 8279, 8280, 8281, 8282, 8283, 8284
 8285, 8286, 8287, 8288, 8289, 8290, 8291, 8292, 8293, 8294, 8295, 8296, 8297, 8298, 8299, 8300
 8301, 8302, 8303, 8304, 8305, 8306, 8307, 8308, 8309, 8310, 8311, 8312, 8397, 8398, 8399, 8400
 8401, 8402, 8403, 8404, 8405, 8406, 8407, 8408, 8409, 8410, 8411, 8412, 8413, 8414, 8415, 8416
 8417, 8418, 8419, 8420, 8421, 8422, 8423, 8424, 8425, 8426, 8427, 8428, 8429, 8430, 8431, 8432
 8433, 8434, 8435, 8436, 8437, 8438, 8439, 8440, 8441, 8442, 8443, 8444, 8445, 8446, 8447, 8448
 8449, 8450, 8451, 8452, 8453, 8454, 8455, 8456, 8457, 8458, 8459, 8460, 8461, 8462, 8463, 8464
 8465, 8466, 8467, 8468, 8469, 8470, 8471, 8472, 8473, 8474, 8475, 8476, 8477, 8478, 8479, 8480
 8481, 8482, 8483, 8484, 8485, 8486, 8487, 8488, 8489, 8490, 8491, 8492, 8493, 8494, 8495, 8496
 8497, 8498, 8499, 8500, 8501, 8502, 8503, 8504, 8505, 8506, 8507, 8508, 8509, 8510, 8511, 8512
 8513, 8514, 8515, 8516, 8517, 8518, 8519, 8520, 8521, 8522, 8523, 8524, 8525, 8526, 8527, 8528
 8529, 8530, 8531, 8532, 8533, 8534, 8535, 8536, 8537, 8538, 8539, 8540, 8541, 8542, 8543, 8544
 8545, 8546, 8547, 8548, 8549, 8550, 8551, 8552, 8553, 8554, 8555, 8556, 8557, 8558, 8559
*Nset, nset=P5
    1,    2,    4,    6,    7,    8,    9,   10,   11,   12,   13,   14,   15,   16,   17,   18
   19,   20,   21,   22,   23,   24,   25,   26,   27,   29,   30,   32,   36,   37,   39,   43
   44,   46,   50,   51,   53,   56,   57,   59,   63,   64,   65,   66,   67,   68,   69,   70
   71,   72,   73,   74,   75,   76,   77,   78,   79,   80,   81,   82,   83,   84,   85,   86
   87,   88,   89,   90,   91,   92,   93,   94,   95,   96,   97,   98,   99,  100,  101,  102
  105,  106,  107,  108,  109,  110,  111,  112,  113,  114,  115,  116,  117,  118,  119,  120
  121,  122,  123,  124,  141,  142,  143,  144,  145,  146,  147,  148,  149,  150,  151,  152
  153,  154,  155,  156,  157,  158,  159,  160,  161,  162,  163,  164,  165,  166,  167,  168
  169,  170,  171,  172,  212,  213,  214,  215,  216,  217,  218,  219,  220,  221,  222,  223
  224,  225,  226,  227,  228,  229,  230,  231,  232,  233,  234,  235,  236,  237,  238,  239
  240,  241,  242,  243,  244,  245,  246,  247,  248,  249,  250,  251,  252,  253,  254,  255
  256,  257,  258,  259,  260,  261,  262,  263,  264,  265,  266,  267,  268,  269,  270,  271
  272,  273,  274,  275,  276,  302,  303,  304,  305,  306,  307,  308,  309,  310,  311,  312
  313,  314,  315,  316,  317,  318,  319,  320,  321,  322,  323,  324,  325,  326,  327,  328
  329,  330,  331,  332,  333,  334,  335,  336,  337,  338,  339,  340,  341,  342,  343,  344
  345,  346,  347,  348,  349,  350,  351,  352,  353,  354,  355,  356,  357,  358,  359,  360
  361,  362,  363,  364,  365,  366,  367,  368,  369,  370,  371,  372,  373,  374,  375,  376
  377,  378,  379,  380,  381,  382,  383,  384,  385,  386,  387,  388,  389,  390,  391,  392
  393,  394,  395,  396,  397,  398,  399,  400,  401,  402,  403,  404,  405,  406,  407,  408
  409,  410,  411,  412,  413,  414,  415,  416,  417,  418,  419,  420,  421,  422,  423,  424
  425,  426,  427,  428,  429,  430,  431,  432,  433,  434,  435,  436,  437,  438,  439,  440
  441,  442,  443,  444,  445,  446,  447,  448,  449,  450,  451,  452,  453,  454,  455,  456
  457,  458,  459,  460,  461,  462,  463,  464,  465,  466,  467,  468,  469,  470,  471,  472
  473,  474,  475,  476,  477,  478,  479,  480,  481,  482,  483,  484,  485,  486,  487,  488
  489,  490,  491,  492,  493,  494,  495,  496,  497,  498,  499,  500,  501,  502,  503,  504
  505,  506,  507,  508,  509,  510,  511,  512,  513,  514,  515,  516,  517,  518,  519,  520
  521,  522,  523,  524,  525,  526,  527,  528,  529,  530,  531,  532,  533,  534,  535,  536
  537,  538,  539,  540,  541,  542,  543,  544,  545,  546,  547,  548,  549,  550,  551,  552
  553,  554,  555,  556,  557,  558,  559,  560,  561,  562,  563,  564,  565,  566,  567,  568
  569,  570,  571,  572,  573,  574,  575,  576,  577,  578,  579,  580,  581,  582,  583,  584
  585,  586,  587,  588,  589,  590,  591,  592,  593,  594,  595,  596,  597,  598,  599,  600
  601,  602,  603,  604,  605,  606,  607,  608,  609,  610,  611,  612,  613,  614,  615,  616
  617,  618,  619,  620,  621,  622,  623,  624,  625,  626,  627,  628,  629,  630,  631,  632
  633,  634,  635,  636,  637,  638,  639,  640,  641,  642,  643,  644,  645,  646,  647,  648
  649,  650,  651,  652,  653,  654,  655,  656,  657,  658,  659,  660,  661,  662,  663,  664
  665,  666,  667,  668,  669,  670,  671,  672,  673,  674,  675,  676,  677,  678,  679,  680
  681,  682,  683,  684,  685,  686,  687,  688,  689,  690,  691,  692,  693,  694,  695,  696
  697,  698,  699,  700,  701,  702,  703,  704,  705,  706,  707,  708,  709,  710,  711,  712
  713,  714,  715,  716,  717,  718,  719,  720,  721,  722,  723,  724,  725,  726,  727,  728
  729,  730,  731,  732,  733,  734,  735,  736,  737,  738,  739,  740,  741,  742,  743,  744
  745,  746,  747,  748,  749,  750,  751,  752,  753,  754,  755,  756,  757,  758,  759,  760
  761,  762,  763,  764,  765,  766,  767,  768,  769,  770,  771,  772,  773,  774,  775,  776
  777,  778,  779,  780,  781,  782,  783,  784,  785,  786,  787,  788,  789,  790,  791,  792
  793,  794,  795,  796,  797,  798,  799,  800,  801,  802,  803,  804,  805,  806,  807,  808
  809,  810,  811,  812,  813,  814,  815,  816,  817,  818,  819,  820,  821,  822,  823,  824
  825,  826,  827,  828,  829,  830,  831,  832,  833,  834,  835,  836,  837,  838,  839,  840
  841,  842,  843,  844,  845,  846,  847,  848,  849,  850,  851,  852,  853,  854,  855,  856
  857,  858,  859,  860,  861,  862,  863,  864,  865,  866,  867,  868,  869,  870,  871,  872
  873,  874,  875,  876,  877,  878,  879,  880,  881,  882,  883,  884,  885,  886,  887,  888
  889,  890,  891,  892,  893,  894,  895,  896,  897,  898,  899,  900,  901,  902,  903,  904
  905,  906,  907,  908,  909,  910,  911,  912,  913,  914,  915,  916,  917,  918,  919,  920
  921,  922,  923,  924,  925,  926,  927,  928,  929,  930,  931,  932,  933,  934,  935,  936
  937,  938,  939,  940,  941,  942,  943,  944,  945,  946,  947,  948,  949,  950,  951,  952
  953,  954,  955,  956,  957,  958,  959,  960,  961,  962,  963,  964,  965,  966,  967,  968
  969,  970,  971,  972,  973,  974,  975,  976,  977,  978,  979,  980,  981,  982,  983,  984
  985,  986,  987,  988,  989,  990,  991,  992,  993,  994,  995,  996,  997,  998,  999, 1000
 1001, 1002, 1003, 1004, 1005, 1006, 1007, 1008, 1009, 1010, 1011, 1012, 1013, 1014, 1015, 1016
 1017, 1018, 1019, 1020, 1021, 1022, 1023, 1024, 1025, 1026, 1027, 1028, 1029, 1030, 1031, 1032
 1033, 1034, 1035, 1036, 1037, 1038, 1039, 1040, 1041, 1042, 1043, 1044, 1045, 1046, 1047, 1048
 1049, 1050, 1051, 1052, 1053, 1054, 1055, 1056, 1057, 1058, 1059, 1060, 1061, 1062, 1063, 1064
 1065, 1066, 1067, 1068, 1069, 1070, 1071, 1072, 1073, 1074, 1075, 1076, 1077, 1078, 1079, 1080
 1081, 1082, 1083, 1084, 1085, 1086, 1087, 1088, 1089, 1090, 1091, 1092, 1093, 1094, 1095, 1096
 1097, 1098, 1099, 1100, 1101, 1102, 1103, 1104, 1105, 1106, 1107, 1108, 1109, 1110, 1111, 1112
 1113, 1114, 1115, 1116, 1117, 1118, 1119, 1120, 1121, 1122, 1123, 1124, 1125, 1126, 1127, 1128
 1129, 1130, 1131, 1132, 1133, 1134, 1135, 1136, 1137, 1138, 1139, 1140, 1141, 1142, 1143, 1144
 1145, 1146, 1147, 1148, 1149, 1150, 1151, 1152, 1153, 1154, 1155, 1156, 1157, 1158, 1159, 1160
 1161, 1162, 1163, 1164, 1165, 1166, 1167, 1168, 1169, 1170, 1171, 1172, 1173, 1174, 1175, 1176
 1177, 1178, 1179, 1180, 1181, 1182, 1183, 1184, 1185, 1186, 1187, 1188, 1189, 1190, 1191, 1192
 1193, 1194, 1195, 1196, 1197, 1198, 1199, 1200, 1201, 1202, 1203, 1204, 1205, 1206, 1207, 1208
 1209, 1210, 1211, 1212, 1213, 1214, 1215, 1216, 1217, 1218, 1219, 1220, 1221, 1222, 1223, 1224
 1225, 1226, 1227, 1228, 1229, 1230, 1231, 1232, 1233, 1234, 1235, 1236, 1237, 1238, 1239, 1240
 1241, 1242, 1243, 1244, 1245, 1246, 1247, 1248, 1249, 1250, 1251, 1252, 1253, 1254, 1255, 1256
 1257, 1258, 1259, 1260, 1261, 1262, 1263, 1264, 1265, 1266, 1267, 1268, 1269, 1270, 1271, 1272
 1273, 1274, 1275, 1276, 1277, 1278, 1279, 1280, 1281, 1282, 1283, 1284, 1285, 1286, 1287, 1288
 1289, 1290, 1291, 1292, 1293, 1294, 1295, 1296, 1297, 1298, 1299, 1300, 1301, 1302, 1303, 1304
 1305, 1306, 1307, 1308, 1309, 1310, 1311, 1312, 1313, 1314, 1315, 1316, 1317, 1318, 1319, 1320
 1321, 1322, 1323, 1324, 1325, 1326, 1327, 1328, 1329, 1330, 1331, 1332, 1333, 1334, 1335, 1336
 1337, 1338, 1339, 1340, 1341, 1342, 1343, 1344, 1345, 1346, 1347, 1348, 1349, 1350, 1351, 1352
 1353, 1354, 1355, 1356, 1357, 1358, 1359, 1360, 1361, 1362, 1363, 1364, 1365, 1366, 1367, 1368
 1369, 1370, 1371, 1372, 1373, 1374, 1375, 1376, 1377, 1378, 1379, 1380, 1381, 1382, 1383, 1384
 1385, 1386, 1387, 1388, 1389, 1390, 1391, 1392, 1393, 1394, 1395, 1396, 1397, 1398, 1399, 1400
 1401, 1402, 1403, 1404, 1405, 1406, 1407, 1408, 1409, 1410, 1411, 1412, 1413, 1414, 1415, 1416
 1417, 1418, 1419, 1420, 1421, 1422, 1423, 1424, 1425, 1426, 1427, 1428, 1429, 1430, 1431, 1432
 1433, 1434, 1435, 1436, 1437, 1438, 1439, 1440, 1441, 1442, 1443, 1444, 1445, 1446, 1447, 1448
 1449, 1450, 1451, 1452, 1453, 1454, 1455, 1456, 1457, 1458, 1459, 1460, 1461, 1462, 1463, 1464
 1465, 1466, 1467, 1468, 1469, 1470, 1471, 1472, 1473, 1474, 1475, 1476, 1477, 1478, 1479, 1480
 1481, 1482, 1483, 1484, 1485, 1486, 1487, 1488, 1489, 1490, 1491, 1492, 1493, 1494, 1495, 1496
 1497, 1498, 1499, 1500, 1501, 1502, 1503, 1504, 1505, 1506, 1507, 1508, 1509, 1510, 1511, 1512
 1513, 1514, 1515, 1516, 1517, 1518, 1519, 1520, 1521, 1522, 1523, 1524, 1525, 1526, 1527, 1528
 1529, 1530, 1531, 1532, 1533, 1534, 1535, 1536, 1537, 1538, 1539, 1540, 1541, 1542, 1543, 1544
 1545, 1546, 1547, 1548, 1549, 1550, 1551, 1552, 1553, 1554, 1555, 1556, 1557, 1558, 1559, 1560
 1561, 1562, 1563, 1564, 1565, 1566, 1567, 1568, 1569, 1570, 1571, 1572, 1573, 1574, 1575, 1576
 1577, 1578, 1579, 1580, 1581, 1582, 1583, 1584, 1585, 1586, 1587, 1588, 1589, 1590, 1591, 1592
 1593, 1594, 1595, 1596, 1597, 1598, 1599, 1600, 1601, 1602, 1603, 1604, 1605, 1606, 1607, 1608
 1609, 1610, 1611, 1612, 1613, 1614, 1615, 1616, 1617, 1618, 1619, 1620, 1621, 1622, 1623, 1624
 1625, 1626, 1627, 1628, 1629, 1630, 1631, 1632, 3295, 3296, 3297, 3298, 3299, 3300, 3301, 3302
 3303, 3304, 3305, 3306, 3307, 3308, 3309, 3310, 3311, 3312, 3313, 3314, 3315, 3316, 3317, 3318
 3319, 3320, 3321, 3322, 3323, 3324, 3325, 3326, 3327, 3328, 3329, 3330, 3331, 3332, 3333, 3334
 3335, 3336, 3337, 3338, 3339, 3340, 3341, 3342, 3343, 3344, 3345, 3346, 3347, 3348, 3349, 3350
 3351, 3352, 3353, 3354, 3355, 3356, 3357, 3358, 3359, 3360, 3361, 3362, 3363, 3364, 3365, 3366
 3367, 3368, 3369, 3370, 3371, 3372, 3373, 3374, 3375, 3376, 3377, 3378, 3379, 3380, 3381, 3382
 3383, 3384, 3385, 3386, 3387, 3388, 3389, 3390, 3391, 3392, 3393, 3394, 3395, 3396, 3397, 3398
 3399, 3400, 3401, 3402, 3403, 3404, 3405, 3406, 3407, 3408, 3409, 3410, 3411, 3412, 3413, 3414
 3415, 3416, 3417, 3418, 3419, 3420, 3421, 3422, 3423, 3424, 3425, 3426, 3427, 3428, 3429, 3430
 3431, 3432, 3433, 3434, 3435, 3436, 3437, 3438, 3439, 3440, 3441, 3442, 3443, 3444, 3445, 3446
 3447, 3448, 3449, 3450, 3451, 3452, 3453, 3454, 3455, 3456, 3457, 3458, 3459, 3460, 3461, 3462
 3463, 3464, 3465, 3466, 3467, 3468, 3469, 3470, 3471, 3472, 3473, 3474, 3475, 3476, 3477, 3478
 3479, 3480, 3481, 3482, 3483, 3484, 3485, 3486, 3487, 3488, 3489, 3490, 3491, 3492, 3493, 3494
 3495, 3496, 3497, 3498, 3499, 3500, 3501, 3502, 3503, 3504, 3505, 3506, 3507, 3508, 3509, 3510
 3511, 3512, 3513, 3514, 3515, 3516, 3517, 3518, 3519, 3520, 3521, 3522, 3523, 3524, 3525, 3526
 3527, 3528, 3529, 3530, 3531, 3532, 3533, 3534, 3535, 3536, 3537, 3538, 3539, 3540, 3541, 3542
 3543, 3544, 3545, 3546, 3547, 3548, 3549, 3550, 3551, 3552, 3553, 3554, 3555, 3556, 3557, 3558
 3559, 3560, 3561, 3562, 3563, 3564, 3565, 3566, 3567, 3568, 3569, 3570, 3571, 3572, 3573, 3574
 3575, 3576, 3577, 3578, 3579, 3580, 3581, 3582, 3583, 3584, 3585, 3586, 3587, 3588, 3589, 3590
 3591, 3592, 3593, 3594, 3595, 3596, 3597, 3598, 3599, 3600, 3601, 3602, 3603, 3604, 3605, 3606
 3607, 3608, 3609, 3610, 3611, 3612, 3613, 3614, 3615, 3616, 3617, 3618, 3619, 3620, 3621, 3622
 3623, 3624, 3625, 3626, 3627, 3628, 3629, 3630, 3631, 3632, 3633, 3634, 3635, 3636, 3637, 3638
 3639, 3640, 3641, 3642, 3643, 3644, 3645, 3646, 3647, 3648, 3649, 3650, 3651, 3652, 3653, 3654
 3655, 3656, 3657, 3658, 3659, 3660, 3661, 3662, 3663, 3664, 3665, 3666, 3667, 3668, 3669, 3670
 3671, 3672, 3673, 3674, 3675, 3676, 3677, 3678, 3679, 3680, 3681, 3682, 3683, 3684, 3685, 3686
 3687, 3688, 3689, 3690, 3691, 3692, 3693, 3694, 3695, 3696, 3697, 3698, 3699, 3700, 3701, 3702
 3703, 3704, 3705, 3706, 3707, 3708, 3709, 3710, 3711, 3712, 3713, 3714, 3715, 3716, 3717, 3718
 3719, 3720, 3721, 3722, 3723, 3724, 3725, 3726, 3727, 3728, 3729, 3730, 3731, 3732, 3733, 3734
 3735, 3736, 3737, 3738, 3739, 3740, 3741, 3742, 3743, 3744, 3745, 3746, 3747, 3748, 3749, 3750
 3751, 3752, 3753, 3754, 3755, 3756, 3757, 3758, 3759, 3760, 3761, 3762, 3763, 3764, 3765, 3766
 3767, 3768, 3769, 3770, 3771, 3772, 3773, 3774, 3775, 3776, 3777, 3778, 3779, 3780, 3781, 3782
 3783, 3784, 3785, 3786, 3787, 3788, 3789, 3790, 3791, 3792, 3793, 3794, 3795, 3796, 3797, 3798
 3799, 3800, 3801, 3802, 3803, 3804, 3805, 3806, 3807, 3808, 3809, 3810, 3811, 3812, 3813, 3814
 3815, 3816, 3817, 3818, 3819, 3820, 3821, 3822, 3823, 3824, 3825, 3826, 3827, 3828, 3829, 3830
 3831, 3832, 3833, 3834, 3835, 3836, 3837, 3838, 3839, 3840, 3841, 3842, 3843, 3844, 3845, 3846
 3847, 3848, 3849, 3850, 3851, 3852, 3853, 3854, 3855, 3856, 3857, 3858, 3859, 3860, 3861, 3862
 3863, 3864, 3865, 3866, 3867, 3868, 3869, 3870, 3871, 3872, 3873, 3874, 3875, 3876, 3877, 3878
 3879, 3880, 3881, 3882, 3883, 3884, 3885, 3886, 3887, 3888, 3889, 3890, 3891, 3892, 3893, 3894
 3895, 3896, 3897, 3898, 3899, 3900, 3901, 3902, 3903, 3904, 3905, 3906, 3907, 3908, 3909, 3910
 3911, 3912, 3913, 3914, 3915, 3916, 3917, 3918, 3919, 3920, 3921, 3922, 3923, 3924, 3925, 3926
 3927, 3928, 3929, 3930, 3931, 3932, 3933, 3934, 3935, 3936, 3937, 3938, 3939, 3940, 3941, 3942
 3943, 3944, 3945, 3946, 3947, 3948, 3949, 3950, 3951, 3952, 3953, 3954, 3955, 3956, 3957, 3958
 3959, 3960, 3961, 3962, 3963, 3964, 3965, 3966, 3967, 3968, 3969, 3970, 3971, 3972, 3973, 3974
 3975, 3976, 3977, 3978, 3979, 3980, 3981, 3982, 3983, 3984, 3985, 3986, 3987, 3988, 3989, 3990
 3991, 3992, 3993, 3994, 3995, 3996, 3997, 3998, 3999, 4000, 4001, 4002, 4003, 4004, 4005, 4006
 4007, 4008, 4009, 4010, 4011, 4012, 4013, 4014, 4015, 4016, 4017, 4018, 4019, 4020, 4021, 4022
 4023, 4024, 4025, 4026, 4027, 4028, 4029, 4030, 4031, 4032, 4033, 4034, 4035, 4036, 4037, 4038
 4039, 4040, 4041, 4042, 4043, 4044, 4045, 4046, 4047, 4048, 4049, 4050, 4051, 4052, 4053, 4054
 4055, 4056, 4057, 4058, 4059, 4060, 4061, 4062, 4063, 4064, 4065, 4066, 4067, 4068, 4069, 4070
 4071, 4072, 4073, 4074, 4075, 4076, 4077, 4078, 4079, 4080, 4081, 4082, 4083, 4084, 4085, 4086
 4087, 4088, 4089, 4090, 4091, 4092, 4093, 4094, 4095, 4096, 4097, 4098, 4099, 4100, 4101, 4102
 4103, 4104, 4105, 4106, 4107, 4108, 4109, 4110, 4111, 4112, 4113, 4114, 4115, 4116, 4117, 4118
 4119, 4120, 4121, 4122, 4123, 4124, 4125, 4126, 4127, 4128, 4129, 4130, 4131, 4132, 4133, 4134
 4135, 4136, 4137, 4138, 4139, 4140, 4141, 4142, 4143, 4144, 4145, 4146, 4147, 4148, 4149, 4150
 4151, 4152, 4153, 4154, 4155, 4156, 4157, 4158, 4159, 4160, 4161, 4162, 4163, 4164, 4165, 4166
 4167, 4168, 4169, 4170, 4171, 4172, 4173, 4174, 4175, 4176, 4177, 4178, 4179, 4180, 4181, 4182
 4183, 4184, 4185, 4186, 4187, 4188, 4189, 4190, 4191, 4192, 4193, 4194, 4195, 4196, 4197, 4198
 4199, 4200, 4201, 4202, 4203, 4204, 4205, 4206, 4207, 4208, 4209, 4210, 4211, 4212, 4213, 4214
 4215, 4216, 4217, 4218, 4219, 4220, 4221, 4222, 4223, 4224, 4225, 4226, 4227, 4228, 4229, 4230
 4231, 4232, 4233, 4234, 4235, 4236, 4237, 4238, 4239, 4240, 4241, 4242, 4243, 4244, 4245, 4246
 4247, 4248, 4249, 4250, 4251, 4252, 4253, 4254, 4255, 4256, 4257, 4258, 4259, 4260, 4261, 4262
 4263, 4264, 4265, 4266, 4267, 4268, 4269, 4270, 4271, 4272, 4273, 4274, 4275, 4276, 4277, 4278
 4279, 4280, 4281, 4282, 4283, 4284, 4285, 4286, 4287, 4288, 4289, 4290, 4291, 4292, 4293, 4294
 4295, 4296, 4297, 4298, 4299, 4300, 4301, 4302, 4303, 4304, 4305, 4306, 4307, 4308, 4309, 4310
 4311, 4312, 4313, 4314, 4315, 4316, 4317, 4318, 4319, 4320, 4321, 4322, 4323, 4324, 4325, 4326
 4327, 4328, 4329, 4330, 4331, 4332, 4333, 4334, 4335, 4336, 4337, 4338, 4339, 4340, 4341, 4342
 4343, 4344, 4345, 4346, 4347, 4348, 4349, 4350, 4351, 4352, 4353, 4354, 4355, 4356, 4357, 4358
 4359, 4360, 4361, 4362, 4363, 4364, 4365, 4366, 4367, 4368, 4369, 4370, 4371, 4372, 4373, 4374
 4375, 4376, 4377, 4378, 4379, 4380, 4381, 4382, 4383, 4384, 4385, 4386, 4387, 4388, 4389, 4390
 4391, 4392, 4393, 4394, 4395, 4396, 4397, 4398, 4399, 4400, 4401, 4402, 4403, 4404, 4405, 4406
 4407, 4408, 4409, 4410, 4411, 4412, 4413, 4414, 4415, 4416, 4417, 4418, 4419, 4420, 4421, 4422
 4423, 4424, 4425, 4426, 4427, 4428, 4429, 4430, 4431, 4432, 4433, 4434, 4435, 4436, 4437, 4438
 4439, 4440, 4441, 4442, 4443, 4444, 4445, 4446, 4447, 4448, 4449, 4450, 4451, 4452, 4453, 4454
 4455, 4456, 4457, 4458, 4459, 4460, 4461, 4462, 4463, 4464, 4465, 4466, 4467, 4468, 4469, 4470
 4471, 4472, 4473, 4474, 4475, 4476, 4477, 4478, 4479, 4480, 4481, 4482, 4483, 4484, 4485, 4486
 4487, 4488, 4489, 4490, 4491, 4492, 4493, 4494, 4495, 4496, 4497, 4498, 4499, 4500, 4501, 4502
 4503, 4504, 4505, 4506, 4507, 4508, 4509, 4510, 4511, 4512, 4513, 4514, 4515, 4516, 4517, 4518
 4519, 4520, 4521, 4522, 4523, 4524, 4525, 4526, 4527, 4528, 4529, 4530, 4531, 4532, 4533, 4534
 4535, 4536, 4537, 4538, 4539, 4540, 4541, 4542, 4543, 4544, 4545, 4546, 4547, 4548, 4549, 4550
 4551, 4552, 4553, 4554, 4555, 4556, 4557, 4558, 4559, 4560, 4561, 4562, 4563, 4564, 4565, 4566
 4567, 4568, 4569, 4570, 4571, 4572, 4573, 4574, 4575, 4576, 4577, 4578, 4579, 4580, 4581, 4582
 4583, 4584, 4585, 4586, 4587, 4588, 4589, 4590, 4591, 4592, 4593, 4594, 4595, 4596, 4597, 4598
 4599, 4600, 4601, 4602, 4603, 4604, 4605, 4606, 4607, 4608, 4609, 4610, 4611, 4612, 4613, 4614
 4615, 4616, 4617, 4618, 4619, 4620, 4621, 4622, 4623, 4624, 4625, 4626, 4627, 4628, 4629, 4630
 4631, 4632, 4633, 4634, 4635, 4636, 4637, 4638, 4639, 4640, 4641, 4642, 4643, 4644, 4645, 4646
 4647, 4648, 4649, 4650, 4651, 4652, 4653, 4654, 4655, 4656, 4657, 4658, 4659, 4660, 4661, 4662
 4663, 4664, 4665, 4666, 4667, 4668, 4669, 4670, 4671, 4672, 4673, 4674, 4675, 4676, 4677, 4678
 4679, 4680, 4681, 4682, 4683, 4684, 4685, 4686, 4687, 4688, 4689, 4690, 4691, 4692, 4693, 4694
 4695, 4696, 4697, 4698, 4699, 4700, 4701, 4702, 4703, 4704, 4705, 4706, 4707, 4708, 4709, 4710
 4711, 4712, 4713, 4714, 4715, 4716, 4717, 4718, 4719, 4720, 4721, 4722, 4723, 4724, 4725, 4726
 4727, 4728, 4729, 4730, 4731, 4732, 4733, 4734, 4735, 4736, 4737, 4738, 4739, 4740, 4741, 4742
 4743, 4744, 4745, 4746, 4747, 4748, 4749, 4750, 4751, 4752, 4753, 4754, 4755, 4756, 4757, 4758
 4759, 4760, 4761, 4762, 4763, 4764, 4765, 4766, 4767, 4768, 4769, 4770, 4771, 4772, 4773, 4774
 4775, 4776, 4777, 4778, 4779, 4780, 4781, 4782, 4783, 4784, 4785, 4786, 4787, 4788, 4789, 4790
 4791, 4792, 4793, 4794, 4795, 4796, 4797, 4798, 4799, 4800, 4801, 4802, 4803, 4804, 4805, 4806
 4807, 4808, 4809, 4810, 4811, 4812, 4813, 4814, 4815, 4816, 4817, 4818, 4819, 4820, 4821, 4822
 4823, 4824, 4825, 4826, 4827, 4828, 4829, 4830, 4831, 4832, 4833, 4834, 4835, 4836, 4837, 4838
 4839, 4840, 4841, 4842, 4843, 4844, 4845, 4846, 4847, 4848, 4849, 4850, 4851, 4852, 4853, 4854
 4855, 4856, 4857, 4858, 4859, 4860, 4861, 4862, 4863, 4864, 4865, 4866, 4867, 4868, 4869, 4870
 4871, 4872, 4873, 4874, 4875, 4876, 4877, 4878, 4879, 4880, 4881, 4882, 4883, 4884, 4885, 4886
 4887, 4888, 4889, 4890, 4891, 4892, 4893, 4894, 4895, 4896, 4897, 4898, 4899, 4900, 4901, 4902
 4903, 4904, 4905, 4906, 4907, 4908, 4909, 4910, 4911, 4912, 4913, 4914, 4915, 4916, 4917, 4918
 4919, 4920, 4921, 4922, 4923, 4924, 4925, 4926, 4927, 4928, 4929, 4930, 4931, 4932, 4933, 4934
 4935, 4936, 4937, 4938, 4939, 4940, 4941, 4942, 4943, 4944, 4945, 4946, 4947, 4948, 4949, 4950
 4951, 4952, 4953, 4954, 4955, 4956, 4957, 4958, 4959, 4960, 4961, 4962, 4963, 4964, 4965, 4966
 4967, 4968, 4969, 4970, 4971, 4972, 4973, 4974, 4975, 4976, 4977, 4978, 4979, 4980, 4981, 4982
 4983, 4984, 4985, 4986, 4987, 4988, 4989, 4990, 4991, 4992, 4993, 4994, 4995, 4996, 4997, 4998
 4999, 5000, 5001, 5002, 5003, 5004, 5005, 5006, 5007, 5008, 5009, 5010, 5011, 5012, 5013, 5014
 5015, 5016, 5017, 5018, 5019, 5020, 5021, 5022, 5023, 5024, 5025, 5026, 5027, 5028, 5029, 5030
 5031, 5032, 5033, 5034, 5035, 5036, 5037, 5038, 5039, 5040, 5041, 5042, 5043, 5044, 5045, 5046
 5047, 5048, 5049, 5050, 5051, 5052, 5053, 5054, 5055, 5056, 5057, 5058, 5059, 5060, 5061, 5062
 5063, 5064, 5065, 5066, 5067, 5068, 5069, 5070, 5071, 5072, 5073, 5074, 5075, 5076, 5077, 5078
 5079, 5080, 5081, 5082, 5083, 5084, 5085, 5086, 5087, 5088, 5089, 5090, 5091, 5092, 5093, 5094
 5095, 5096, 5097, 5098, 5099, 5100, 5101, 5102, 5103, 5104, 5105, 5106, 5107, 5108, 5109, 5110
 5111, 5112, 5113, 5114, 5115, 5116, 5117, 5118, 5119, 5120, 5121, 5122, 5123, 5124, 5125, 5126
 5127, 5128, 5129, 5130, 5131, 5132, 5133, 5134, 5135, 5136, 5137, 5138, 5139, 5140, 5141, 5142
 5143, 5144, 5145, 5146, 5147, 5148, 5149, 5150, 5151, 5152, 5153, 5154, 5155, 5156, 5157, 5158
 5159, 5160, 5161, 5162, 5163, 5164, 5165, 5166, 5167, 5168, 5169, 5170, 5171, 5172, 5173, 5174
 5175, 5176, 5177, 5178, 5179, 5180, 5181, 5182, 5183, 5184, 5185, 5186, 5187, 5188, 5189, 5190
 5191, 5192, 5193, 5194, 5195, 5196, 5197, 5198, 5199, 5200, 5201, 5202, 5203, 5204, 5205, 5206
 5207, 5208, 5209, 5210, 5211, 5212, 5213, 5214, 5215, 5216, 5217, 5218, 5219, 5220, 5221, 5222
 5223, 5224, 5225, 5226, 5227, 5228, 5229, 5230, 5231, 5232, 5233, 5234, 5235, 5236, 5237, 5238
 5239, 5240, 5241, 5242, 5243, 5244, 5245, 5246, 5247, 5248, 5249, 5250, 5251, 5252, 5253, 5254
 5255, 5256, 5257, 5258, 5259, 5260, 5261, 5262, 5263, 5264, 5265, 5266, 5267, 5268, 5269, 5270
 5271, 5272, 5273, 5274, 5275, 5276, 5277, 5278, 5279, 5280, 5281, 5282, 5283, 5284, 5285, 5286
 5287, 5288, 5289, 5290, 5291, 5292, 5293, 5294, 5295, 5296, 5297, 5298, 5299, 5300, 5301, 5302
 5303, 5304, 5305, 5306, 5307, 5308, 5309, 5310, 5311, 5312, 5313, 5314, 5315, 5316, 5317, 5318
 5319, 5320, 5321, 5322, 5323, 5324, 5325, 5326, 5327, 5328, 5329, 5330, 5331, 5332, 5333, 5334
 5335, 5336, 5337, 5338, 5339, 5340, 5341, 5342, 5343, 5344, 5345, 5346, 5347, 5348, 5349, 5350
 5351, 5352, 5353, 5354, 5355, 5356, 5357, 5358, 5359, 5360, 5361, 5362, 5363, 5364, 5365, 5366
 5367, 5368, 5369, 5370, 5371, 5372, 5373, 5374, 5375, 5376, 5377, 5378, 5379, 5380, 5381, 5382
 5383, 5384, 5385, 5386, 5387, 5388, 5389, 5390, 5391, 5392, 5393, 5394, 5395, 5396, 5397, 5398
 5399, 5400, 5401, 5402, 5403, 5404, 5405, 5406, 5407, 5408, 5409, 5410, 5411, 5412, 5413, 5414
 5415, 5416, 5417, 5418, 5419, 5420, 5421, 5422, 5423, 5424, 5425, 5426, 5427, 5428, 5429, 5430
 5431, 5432, 5433, 5434, 5435, 5436, 5437, 5438, 5439, 5440, 5441, 5442, 5443, 5444, 5445, 5446
 5447, 5448, 5449, 5450, 5451, 5452, 5453, 5454, 5455, 5456, 5457, 5458, 5459, 5460, 5461, 5462
 5463, 5464, 5465, 5466, 5467, 5468, 5469, 5470, 5471, 5472, 5473, 5474, 5475, 5476, 5477, 5478
 5479, 5480, 5481, 5482, 5483, 5484, 5485, 5486, 5487, 5488, 5489, 5490, 5491, 5492, 5493, 5494
 5495, 5496, 5497, 5498, 5499, 5500, 5501, 5502, 5503, 5504, 5505, 5506, 5507, 5508, 5509, 5510
 5511, 5512, 5513, 5514, 5515, 5516, 5517, 5518, 5519, 5520, 5521, 5522, 5523, 5524, 5525, 5526
 5527, 5528, 5529, 5530, 5531, 5532, 5533, 5534, 5535, 5536, 5537, 5538, 5539, 5540, 5541, 5542
 5543, 5544, 5545, 5546, 5547, 5548, 5549, 5550, 5551, 5552, 5553, 5554, 5555, 5556, 5557, 5558
 5559, 5560, 5561, 5562, 5563, 5564, 5565, 5566, 5567, 5568, 5569, 5570, 5571, 5572, 5573, 5574
 5575, 5576, 5577, 5578, 5579, 5580, 5581, 5582, 5583, 5584, 5585, 5586, 5587, 5588, 5589, 5590
 5591, 5592, 5593, 5594, 5595, 5596, 5597, 5598, 5599, 5600, 5601, 5602, 5603, 5604, 5605, 5606
 5607, 5608, 5609, 5610, 5611, 5612, 5613, 5614, 5615, 5616, 5617, 5618, 5619, 5620, 5621, 5622
 5623, 5624, 5625, 5626, 5627, 5628, 5629, 5630, 5631, 5632, 5633, 5634, 5635, 5636, 5637, 5638
 5639, 5640, 5641, 5642, 5643, 5644, 5645, 5646, 5647, 5648, 5649, 5650, 5651, 5652, 5653, 5654
 5655, 5656, 5657, 5658, 5659, 5660, 5661, 5662, 5663, 5664, 5665, 5666, 5667, 5668, 5669, 5670
 5671, 5672, 5673, 5674, 5675, 5676, 5677, 5678, 5679, 5680, 5681, 5682, 5683, 5684, 5685, 5686
 5687, 5688, 5689, 5690, 5691, 5692, 5693, 5694, 5695, 5696, 5697, 5698, 5699, 5700, 5701, 5702
 5703, 5704, 5705, 5706, 5707, 5708, 5709, 5710, 5711, 5712, 5713, 5714, 5715, 5716, 5717, 5718
 5719, 5720, 5721, 5722, 5723, 5724, 5725, 5726, 5727, 5728, 5729, 5730, 5731, 5732, 5733, 5734
 5735, 5736, 5737, 5738, 5739, 5740, 5741, 5742, 5743, 5744, 5745, 5746, 5747, 5748, 5749, 5750
 5751, 5752, 5753, 5754, 5755, 5756, 5757, 5758, 5759, 5760, 5761, 5762, 5763, 5764, 5765, 5766
 5767, 5768, 5769, 5770, 5771, 5772, 5773, 5774, 5775, 5776, 5777, 5778, 5779, 5780, 5781, 5782
 5783, 5784, 5785, 5786, 5787, 5788, 5789, 5790, 5791, 5792, 5793, 5794, 5795, 5796, 5797, 5798
 5799, 5800, 5801, 5802, 5803, 5804, 5805, 5806, 5807, 5808, 5809, 5810, 5811, 5812, 5813, 5814
 5815, 5816, 5817, 5818, 5819, 5820, 5821, 5822, 5823, 5824, 5825, 5826, 5827, 5828, 5829, 5830
 5831, 5832, 5833, 5834, 5835, 5836, 5837, 5838, 5839, 5840, 5841, 5842, 5843, 5844, 5845, 5846
 5847, 5848, 5849, 5850, 5851, 5852, 5853, 5854, 5855, 5856, 5857, 5858, 5859, 5860, 5861, 5862
 5863, 5864, 5865, 5866, 5867, 5868, 5869, 5870, 5871, 5872, 5873, 5874, 5875, 5876, 5877, 5878
 5879, 5880, 5881, 5882, 5883, 5884, 5885, 5886, 5887, 5888, 5889, 5890, 5891, 5892, 5893, 5894
 5895, 5896, 5897, 5898, 5899, 5900, 5901, 5902, 5903, 5904, 5905, 5906, 5907, 5908, 5909, 5910
 5911, 5912, 5913, 5914, 5915, 5916, 5917, 5918, 5919, 5920, 5921, 5922, 5923, 5924, 5925, 5926
 5927, 5928, 5929, 5930, 5931, 5932, 5933, 5934, 5935, 5936, 5937, 5938, 5939, 5940, 5941, 5942
 5943, 5944, 5945, 5946, 5947, 5948, 5949, 5950, 5951, 5952, 5953, 5954, 5955, 5956, 5957, 5958
 5959, 5960, 5961, 5962, 5963, 5964, 5965, 5966, 5967, 5968, 5969, 5970, 5971, 5972, 5973, 5974
 5975, 5976, 5977, 5978, 5979, 5980, 5981, 5982, 5983, 5984, 5985, 5986, 5987, 5988, 5989, 5990
 5991, 5992, 5993, 5994, 5995, 5996, 5997, 5998, 5999, 6000, 6001, 6002, 6003, 6004, 6005, 6006
 6007, 6008, 6009, 6010, 6011, 6012, 6013, 6014, 6015, 6016, 6017, 6018, 6019, 6020, 6021, 6022
 6023, 6024, 6025, 6026, 6027, 6028, 6029, 6030, 6031, 6032, 6033, 6034, 6035, 6036, 6037, 6038
 6039, 6040, 6041, 6042, 6043, 6044, 6045, 6046, 6047, 6048, 6049, 6050, 6051, 6052, 6053, 6054
 6055, 6056, 6057, 6058, 6059, 6060, 6061, 6062, 6063, 6064, 6065, 6066, 6067, 6068, 6069, 6070
 6071, 6072, 6073, 6074, 6075, 6076, 6077, 6078, 6079, 6080, 6081, 6082, 6083, 6084, 6085, 6086
 6087, 6088, 6089, 6090, 6091, 6092, 6093, 6094, 6095, 6096, 6097, 6098, 6099, 6100, 6101, 6102
 6103, 6104, 6105, 6106, 6107, 6108, 6109, 6110, 6111, 6112, 6113, 6114, 6115, 6116, 6117, 6118
 6119, 6120, 6121, 6122, 6123, 6124, 6125, 6126, 6127, 6128, 6129, 6130, 6131, 6132, 6133, 6134
 6135, 6136, 6137, 6138, 6139, 6140, 6141, 6142, 6143, 6144, 6145, 6146, 6147, 6148, 6149, 6150
 6233, 6234, 6235, 6236, 6237, 6238, 6239, 6240, 6241, 6242, 6243, 6244, 6245, 6246, 6247, 6248
 6249, 6250, 6251, 6252, 6253, 6254, 6255, 6256, 6257, 6258, 6259, 6260, 6261, 6262, 6263, 6264
 6265, 6266, 6267, 6268, 6269, 6270, 6271, 6272, 6273, 6274, 6275, 6276, 6277, 6278, 6279, 6280
 6281, 6282, 6283, 6284, 6285, 6286, 6287, 6288, 6289, 6290, 6291, 6292, 6293, 6294, 6295, 6296
 6297, 6298, 6299, 6300, 6301, 6302, 6303, 6304, 6305, 6306, 6307, 6308, 6309, 6310, 6311, 6312
 6313, 6314, 6315, 6316, 6317, 6318, 6319, 6320, 6321, 6322, 6323, 6324, 6325, 6326, 6327, 6328
 6329, 6330, 6331, 6332, 6333, 6334, 6335, 6336, 6337, 6338, 6339, 6340, 6341, 6342, 6343, 6344
 6345, 6346, 6347, 6348, 6349, 6350, 6351, 6352, 6353, 6354, 6355, 6356, 6357, 6358, 6359, 6360
 6361, 6362, 6363, 6364, 6365, 6366, 6367, 6368, 6369, 6370, 6371, 6372, 6373, 6374, 6375, 6376
 6377, 6378, 6379, 6380, 6381, 6382, 6383, 6384, 6385, 6386, 6387, 6388, 6389, 6390, 6391, 6392
 6393, 6394, 6395, 6396, 6397, 6398, 6399, 6400, 6401, 6402, 6403, 6404, 6405, 6406, 6407, 6408
 6409, 6410, 6411, 6412, 6413, 6414, 6415, 6416, 6417, 6418, 6419, 6420, 6421, 6422, 6423, 6424
 6425, 6426, 6427, 6428, 6429, 6430, 6431, 6432, 6433, 6434, 6435, 6436, 6437, 6438, 6439, 6440
 6441, 6442, 6443, 6444, 6445, 6446, 6447, 6448, 6449, 6450, 6451, 6452, 6453, 6454, 6455, 6456
 6457, 6458, 6459, 6460, 6461, 6462, 6463, 6464, 6465, 6466, 6467, 6468, 6469, 6470, 6471, 6472
 6473, 6474, 6475, 6476, 6477, 6478, 6479, 6480, 6481, 6482, 6483, 6484, 6485, 6486, 6487, 6488
 6489, 6490, 6491, 6492, 6493, 6494, 6495, 6496, 6497, 6498, 6499, 6500, 6501, 6502, 6503, 6504
 6505, 6506, 6507, 6508, 6509, 6510, 6511, 6512, 6513, 6514, 6515, 6516, 6517, 6518, 6519, 6520
 6521, 6522, 6523, 6524, 6525, 6526, 6527, 6528, 6529, 6530, 6531, 6532, 6533, 6534, 6535, 6536
 6537, 6538, 6539, 6540, 6541, 6542, 6543, 6544, 6545, 6546, 6547, 6548, 6549, 6550, 6551, 6552
 6553, 6554, 6555, 6556, 6557, 6558, 6559, 6560, 6561, 6562, 6563, 6564, 6565, 6566, 6567, 6568
 6569, 6570, 6571, 6572, 6573, 6574, 6575, 6576, 6577, 6578, 6579, 6580, 6581, 6582, 6583, 6584
 6585, 6586, 6587, 6588, 6589, 6590, 6591, 6592, 6593, 6594, 6595, 6596, 6597, 6598, 6599, 6600
 6601, 6602, 6603, 6604, 6605, 6606, 6607, 6608, 6609, 6610, 6611, 6612, 6613, 6614, 6615, 6616
 6617, 6618, 6619, 6620, 6621, 6622, 6623, 6624, 6625, 6626, 6627, 6628, 6629, 6630, 6631, 6632
 6633, 6634, 6635, 6636, 6637, 6638, 6639, 6640, 6641, 6642, 6643, 6644, 6645, 6646, 6647, 6648
 6649, 6650, 6651, 6652, 6653, 6654, 6655, 6656, 6657, 6658, 6659, 6660, 6661, 6662, 6663, 6664
 6665, 6666, 6667, 6668, 6669, 6670, 6671, 6672, 6673, 6674, 6675, 6676, 6677, 6678, 6679, 6680
 6681, 6682, 6683, 6684, 6685, 6686, 6687, 6688, 6689, 6690, 6691, 6692, 6693, 6694, 6695, 6696
 6697, 6698, 6699, 6700, 6701, 6702, 6703, 6704, 6705, 6706, 6707, 6708, 6709, 6710, 6711, 6712
 6713, 6714, 6715, 6716, 6717, 6718, 6719, 6720, 6721, 6722, 6723, 6724, 6725, 6726, 6727, 6728
 6729, 6730, 6731, 6732, 6733, 6734, 6735, 6736, 6737, 6738, 6739, 6740, 6741, 6742, 6743, 6744
 6745, 6746, 6747, 6748, 6749, 6750, 6751, 6752, 6753, 6754, 6755, 6756, 6757, 6758, 6759, 6760
 6761, 6762, 6763, 6764, 6765, 6766, 6767, 6768, 6769, 6770, 6771, 6772, 6773, 6774, 6775, 6776
 6777, 6778, 6779, 6780, 6781, 6782, 6783, 6784, 6785, 6786, 6787, 6788, 6789, 6790, 6791, 6792
 6793, 6794, 6795, 6796, 6797, 6798, 6799, 6800, 6801, 6802, 6803, 6804, 6805, 6806, 6807, 6808
 6809, 6810, 6811, 6812, 6813, 6814, 6815, 6816, 6817, 6818, 6819, 6820, 6821, 6822, 6823, 6824
 6825, 6826, 6827, 6828, 6829, 6830, 6831, 6832, 6833, 6834, 6835, 6836, 6837, 6838, 6839, 6840
 6841, 6842, 6843, 6844, 6845, 6846, 6847, 6848, 6849, 6850, 6851, 6852, 6853, 6854, 6855, 6856
 6857, 6858, 6859, 6860, 6861, 6862, 6863, 6864, 6865, 6866, 6867, 6868, 6869, 6870, 6871, 6872
 6873, 6874, 6875, 6876, 6877, 6878, 6879, 6880, 6881, 6882, 6883, 6884, 6885, 6886, 6887, 6888
 6889, 6890, 6891, 6892, 6893, 6894, 6895, 6896, 6897, 6898, 6899, 6900, 6901, 6902, 6903, 6904
 6905, 6906, 6907, 6908, 6909, 6910, 6911, 6912, 6913, 6914, 6915, 6916, 6917, 6918, 6919, 6920
 6921, 6922, 6923, 6924, 6925, 6926, 6927, 6928, 6929, 6930, 6931, 6932, 6933, 6934, 6935, 6936
 6937, 6938, 6939, 6940, 6941, 6942, 6943, 6944, 6945, 6946, 6947, 6948, 6949, 6950, 6951, 6952
 6953, 6954, 6955, 6956, 6957, 6958, 6959, 6960, 6961, 6962, 6963, 6964, 6965, 6966, 6967, 6968
 6969, 6970, 6971, 6972, 6973, 6974, 6975, 6976, 6977, 6978, 6979, 6980, 6981, 6982, 6983, 6984
 6985, 6986, 6987, 6988, 6989, 6990, 6991, 6992, 6993, 6994, 6995, 6996, 6997, 6998, 6999, 7000
 7001, 7002, 7003, 7004, 7005, 7006, 7007, 7008, 7009, 7010, 7011, 7012, 7013, 7014, 7015, 7016
 7017, 7018, 7019, 7020, 7021, 7022, 7023, 7024, 7025, 7026, 7027, 7028, 7029, 7030, 7031, 7032
 7033, 7034, 7035, 7036, 7037, 7038, 7039, 7040, 7041, 7042, 7043, 7044, 7045, 7046, 7047, 7048
 7049, 7050, 7051, 7052, 7053, 7054, 7055, 7056, 7057, 7058, 7059, 7060, 7061, 7062, 7063, 7064
 7065, 7066, 7067, 7068, 7069, 7070, 7071, 7072, 7073, 7074, 7075, 7076, 7077, 7078, 7079, 7080
 7081, 7082, 7083, 7084, 7085, 7086, 7087, 7088, 7089, 7090, 7091, 7092, 7093, 7094, 7095, 7096
 7097, 7098, 7099, 7100, 7101, 7102, 7103, 7104, 7105, 7106, 7107, 7108, 7109, 7110, 7111, 7112
 7113, 7114, 7115, 7116, 7117, 7118, 7119, 7120, 7121, 7122, 7123, 7124, 7125, 7126, 7127, 7128
 7129, 7130, 7131, 7132, 7133, 7134, 7135, 7136, 7137, 7138, 7139, 7140, 7141, 7142, 7143, 7144
 7145, 7146, 7147, 7148, 7149, 7150, 7151, 7152, 7153, 7154, 7155, 7156, 7157, 7158, 7159, 7160
 7161, 7162, 7163, 7164, 7165, 7166, 7167, 7168, 7169, 7170, 7171, 7172, 7173, 7174, 7175, 7176
 7177, 7178, 7179, 7180, 7181, 7182, 7183, 7184, 7185, 7186, 7187, 7188, 7189, 7190, 7191, 7192
 7193, 7194, 7195, 7196, 7197, 7198, 7199, 7200, 7201, 7202, 7203, 7204, 7205, 7206, 7207, 7208
 7209, 7210, 7211, 7212, 7213, 7214, 7215, 7216, 7217, 7218, 7219, 7220, 7221, 7222, 7223, 7224
 7225, 7226, 7227, 7228, 7229, 7230, 7231, 7232, 7233, 7234, 7235, 7236, 7237, 7238, 7239, 7240
 7241, 7242, 7243, 7244, 7245, 7246, 7247, 7248, 7249, 7250, 7251, 7252, 7253, 7254, 7255, 7256
 7257, 7258, 7259, 7260, 7261, 7262, 7263, 7264, 7265, 7266, 7267, 7268, 7269, 7270, 7271, 7272
 7273, 7274, 7275, 7276, 7277, 7278, 7279, 7280, 7281, 7282, 7283, 7284, 7285, 7286, 7287, 7288
 7289, 7290, 7291, 7292, 7293, 7294, 7295, 7296, 7297, 7298, 7299, 7300, 7301, 7302, 7303, 7304
 7305, 7306, 7307, 7308, 7309, 7310, 7311, 7312, 7313, 7314, 7315, 7316, 7317, 7318, 7319, 7320
 7321, 7322, 7323, 7324, 7325, 7326, 7327, 7328, 7329, 7330, 7331, 7332, 7333, 7334, 7335, 7336
 7337, 7338, 7339, 7340, 7341, 7342, 7343, 7344, 7345, 7346, 7347, 7348, 7349, 7350, 7351, 7352
 7353, 7354, 7355, 7356, 7357, 7358, 7359, 7360, 7361, 7362, 7363, 7364, 7365, 7366, 7367, 7368
 7369, 7370, 7371, 7372, 7373, 7374, 7375, 7376, 7377, 7378, 7379, 7380, 7381, 7382, 7383, 7384
 7385, 7386, 7387, 7388, 7389, 7390, 7391, 7392, 7393, 7394, 7395, 7396, 7397, 7398, 7399, 7400
 7401, 7402, 7403, 7404, 7405, 7406, 7407, 7408, 7409, 7410, 7411, 7412, 7413, 7414, 7415, 7416
 7417, 7418, 7419, 7420, 7421, 7422, 7423, 7424, 7425, 7426, 7427, 7428, 7429, 7430, 7431, 7432
 7433, 7434, 7435, 7436, 7437, 7438, 7439, 7440, 7441, 7442, 7443, 7444, 7445, 7446, 7447, 7448
 7449, 7450, 7451, 7452, 7453, 7454, 7455, 7456, 7457, 7458, 7459, 7460, 7461, 7462, 7463, 7464
 7465, 7466, 7467, 7468, 7469, 7470, 7471, 7472, 7473, 7474, 7475, 7476, 7477, 7478, 7479, 7480
 7481, 7482, 7483, 7484, 7485, 7486, 7487, 7488, 7489, 7490, 7491, 7492, 7493, 7494, 7495, 7496
 7497, 7498, 7499, 7500, 7501, 7502, 7503, 7504, 7505, 7506, 7507, 7508, 7509, 7510, 7511, 7512
 7513, 7514, 7515, 7516, 7517, 7518, 7519, 7520, 7521, 7522, 7523, 7524, 7525, 7526, 7527, 7528
 7529, 7530, 7531, 7532, 7533, 7534, 7535, 7536, 7537, 7538, 7539, 7540, 7541, 7542, 7543, 7544
 7545, 7546, 7547, 7548, 7549, 7550, 7551, 7552, 7553, 7554, 7555, 7556, 7557, 7558, 7559, 7560
 7561, 7562, 7563, 7564, 7565, 7566, 7567, 7568, 7569, 7570, 7571, 7572, 7573, 7574, 7575, 7576
 7577, 7578, 7579, 7580, 7581, 7582, 7583, 7584, 7585, 7586, 7587, 7588, 7589, 7590, 7591, 7592
 7593, 7594, 7595, 7596, 7597, 7598, 7599, 7600, 7601, 7602, 7603, 7604, 7605, 7606, 7607, 7608
 7609, 7610, 7611, 7612, 7613, 7614, 7615, 7616, 7617, 7618, 7619, 7620, 7621, 7622, 7623, 7624
 7625, 7626, 7627, 7628, 7629, 7630, 7631, 7632, 7633, 7634, 7635, 7636, 7637, 7638, 7639, 7640
 7641, 7642, 7643, 7644, 7645, 7646, 7647, 7648, 7649, 7650, 7651, 7652, 7653, 7654, 7655, 7656
 7657, 7658, 7659, 7660
*Elset, elset=P5
    1,    2,    3,    4,    5,    6,    7,    8,    9,   10,   11,   12,   13,   14,   15,   16
   17,   18,   19,   20,   21,   22,   23,   24,   25,   26,   27,   28,   29,   30,   31,   32
   33,   74,   75,   76,   77,   78,   79,   80,   81,   82,   83,   84,   85,   86,   87,   88
   89,   90,   91,   92,   93,   94,   95,   96,   97,   98,   99,  100,  101,  102,  103,  104
  105,  106,  107,  108,  109,  110,  111,  112,  113,  114,  115,  116,  117,  118,  119,  120
  121,  122,  123,  124,  125,  126,  127,  128,  129,  130,  131,  132,  133,  134,  135,  136
  137,  138,  139,  166,  167,  168,  169,  170,  171,  172,  173,  174,  175,  176,  177,  178
  179,  180,  181,  182,  183,  184,  185,  186,  187,  188,  189,  190,  191,  192,  193,  194
  195,  196,  197,  198,  199,  200,  201,  202,  203,  204,  205,  206,  207,  208,  209,  210
  211,  212,  213,  214,  215,  216,  217,  218,  219,  220,  221,  222,  223,  224,  225,  226
  227,  228,  229,  230,  231,  232,  233,  234,  235,  236,  237,  238,  239,  240,  241,  242
  243,  244,  245,  246,  247,  248,  249,  250,  251,  252,  253,  254,  255,  256,  257,  258
  259,  260,  261,  262,  263,  264,  265,  266,  267,  268,  269,  270,  271,  272,  273,  274
  275,  276,  277,  278,  279,  280,  281,  282,  283,  284,  285,  286,  287,  288,  289,  290
  291,  292,  293,  294,  295,  296,  297,  298,  299,  300,  301,  302,  303,  304,  305,  306
  307,  308,  309,  310,  311,  312,  313,  314,  315,  316,  317,  318,  319,  320,  321,  322
  323,  324,  325,  326,  327,  328,  329,  330,  331,  332,  333,  334,  335,  336,  337,  338
  339,  340,  341,  342,  343,  344,  345,  346,  347,  348,  349,  350,  351,  352,  353,  354
  355,  356,  357,  358,  359,  360,  361,  362,  363,  364,  365,  366,  367,  368,  369,  370
  371,  372,  373,  374,  375,  376,  377,  378,  379,  380,  381,  382,  383,  384,  385,  386
  387,  388,  389,  390,  391,  392,  393,  394,  395,  396,  397,  398,  399,  400,  401,  402
  403,  404,  405,  406,  407,  408,  409,  410,  411,  412,  413,  414,  415,  416,  417,  418
  419,  420,  421,  422,  423,  424,  425,  426,  427,  428,  429,  430,  431,  432,  433,  434
  435,  436,  437,  438,  439,  440,  441,  442,  443,  444,  445,  446,  447,  448,  449,  450
  451,  452,  453,  454,  455,  456,  457,  458,  459,  460,  461,  462,  463,  464,  465,  466
  467,  468,  469,  470,  471,  472,  473,  474,  475,  476,  477,  478,  479,  480,  481,  482
  483,  484,  485,  486,  487,  488,  489,  490,  491,  492,  493,  494,  495,  496,  497,  498
  499,  500,  501,  502,  503,  504,  505,  506,  507,  508,  509,  510,  511,  512,  513,  514
  515,  516,  517,  518,  519,  520,  521,  522,  523,  524,  525,  526,  527,  528,  529,  530
  531,  532,  533,  534,  535,  536,  537,  538,  539,  540,  541,  542,  543,  544,  545,  546
  547,  548,  549,  550,  551,  552,  553,  554,  555,  556,  557,  558,  559,  560,  561,  562
  563,  564,  565,  566,  567,  568,  569,  570,  571,  572,  573,  574,  575,  576,  577,  578
  579,  580,  581,  582,  583,  584,  585,  586,  587,  588,  589,  590,  591,  592,  593,  594
  595,  596,  597,  598,  599,  600,  601,  602,  603,  604,  605,  606,  607,  608,  609,  610
  611,  612,  613,  614,  615,  616,  617,  618,  619,  620,  621,  622,  623,  624,  625,  626
  627,  628,  629,  630,  631,  632,  633,  634,  635,  636,  637,  638,  639,  640,  641,  642
  643,  644,  645,  646,  647,  648,  649,  650,  651,  652,  653,  654,  655,  656,  657,  658
  659,  660,  661,  662,  663,  664,  665,  666,  667,  668,  669,  670,  671,  672,  673,  674
  675,  676,  677,  678,  679,  680,  681,  682,  683,  684,  685,  686,  687,  688,  689,  690
  691,  692,  693,  694,  695,  696,  697,  698,  699,  700,  701,  702,  703,  704,  705,  706
  707,  708,  709,  710,  711,  712,  713,  714,  715,  716,  717,  718,  719,  720,  721,  722
  723,  724,  725,  726,  727,  728,  729,  730,  731,  732,  733,  734,  735,  736,  737,  738
  739,  740,  741,  742,  743,  744,  745,  746,  747,  748,  749,  750,  751,  752,  753,  754
  755,  756,  757,  758,  759,  760,  761,  762,  763,  764,  765,  766,  767,  768,  769,  770
  771,  772,  773,  774,  775,  776,  777,  778,  779,  780,  781,  782,  783,  784,  785,  786
  787,  788,  789,  790,  791,  792,  793,  794,  795,  796,  797,  798,  799,  800,  801,  802
  803,  804,  805,  806,  807,  808,  809,  810,  811,  812,  813,  814,  815,  816,  817,  818
  819,  820,  821,  822,  823,  824,  825,  826,  827,  828,  829,  830,  831,  832,  833,  834
  835,  836,  837,  838,  839,  840,  841,  842,  843,  844,  845,  846,  847,  848,  849,  850
  851,  852,  853,  854,  855,  856,  857,  858,  859,  860,  861,  862,  863,  864,  865,  866
  867,  868,  869,  870,  871,  872,  873,  874,  875,  876,  877,  878,  879,  880,  881,  882
  883,  884,  885,  886,  887,  888,  889,  890,  891,  892,  893,  894,  895,  896,  897,  898
  899,  900,  901,  902,  903,  904,  905,  906,  907,  908,  909,  910,  911,  912,  913,  914
  915,  916,  917,  918,  919,  920,  921,  922,  923,  924,  925,  926,  927,  928,  929,  930
  931,  932,  933,  934,  935,  936,  937,  938,  939,  940,  941,  942,  943,  944,  945,  946
  947,  948,  949,  950,  951,  952,  953,  954,  955,  956,  957,  958,  959,  960,  961,  962
  963,  964,  965,  966,  967,  968,  969,  970,  971,  972,  973,  974,  975,  976,  977,  978
  979,  980,  981,  982,  983,  984,  985,  986,  987,  988,  989,  990,  991,  992,  993,  994
  995,  996,  997,  998,  999, 1000, 1001, 1002, 1003, 1004, 1005, 1006, 1007, 1008, 1009, 1010
 1011, 1012, 1013, 1014, 1015, 1016, 1017, 1018, 1019, 1020, 1021, 1022, 1023, 1024, 1025, 1026
 1027, 1028, 1029, 1030, 1031, 1032, 1033, 1034, 1035, 1036, 1037, 1038, 1039, 1040, 1041, 1042
 1043, 1044, 1045, 1046, 1047, 1048, 1049, 1050, 1051, 1052, 1053, 1054, 1055, 1056, 1057, 1058
 1059, 1060, 1061, 1062, 1063, 1064, 1065, 1066, 1067, 1068, 1069, 1070, 1071, 1072, 1073, 1074
 1075, 1076, 1077, 1078, 1079, 1080, 1081, 1082, 1083, 1084, 1085, 1086, 1087, 1088, 1089, 1090
 1091, 1092, 1093, 1094, 1095, 1096, 1097, 1098, 1099, 1100, 1101, 1102, 1103, 1104, 1105, 1106
 1107, 1108, 1109, 1110, 1111, 1112, 1113, 1114, 1115, 1116, 1117, 1118, 1119, 1120, 1121, 1122
 1123, 1124, 1125, 1126, 1127, 1128, 1129, 1130, 1131, 1132, 1133, 1134, 1135, 1136, 1137, 1138
 1139, 1140, 1141, 1142, 1143, 1144, 1145, 1146, 1147, 1148, 1149, 1150, 1151, 1152, 1153, 1154
 1155, 1156, 1157, 1158, 1159, 1160, 1161, 1162, 1163, 1164, 1165, 1166, 1167, 1168, 1169, 1170
 1171, 1172, 1173, 1174, 1175, 1176, 1177, 1178, 1179, 1180, 1181, 1182, 1183, 1184, 1185, 1186
 1187, 1188, 1189, 1190, 1191, 1192, 1193, 1194, 1195, 1196, 1197, 1198, 1199, 1200, 1201, 1202
 1203, 1204, 1205, 1206, 1207, 1208, 1209, 1210, 1211, 1212, 1213, 1214, 1215, 1216, 1217, 1218
 1219, 1220, 1221, 1222, 1223, 1224, 1225, 1226, 1227, 1228, 1229, 1230, 1231, 1232, 1233, 1234
 1235, 1236, 1237, 1238, 1239, 1240, 1241, 1242, 1243, 1244, 1245, 1246, 1247, 1248, 1249, 1250
 1251, 1252, 1253, 1254, 1255, 1256, 1257, 1258, 1259, 1260, 1261, 1262, 1263, 1264, 1265, 1266
 1267, 1268, 1269, 1270, 1271, 1272, 1273, 1274, 1275, 1276, 1277, 1278, 1279, 1280, 1281, 1282
 1283, 1284, 1285, 1286, 1287, 1288, 1289, 1290, 1291, 1292, 1293, 1294, 1295, 1296, 1297, 1298
 1299, 1300, 1301, 1302, 1303, 1304, 1305, 1306, 1307, 1308, 1309, 1310, 1311, 1312, 1313, 1314
 1315, 1316, 1317, 1318, 1319, 1320, 1321, 1322, 1323, 1324, 1325, 1326, 1327, 1328, 1329, 1330
 1331, 1332, 1333, 1334, 1335, 1336, 1337, 1338, 1339, 1340, 1341, 1342, 1343, 1344, 1345, 1346
 1347, 1348, 1349, 1350, 1351, 1352, 1353, 1354, 1355, 1356, 1357, 1358, 1359, 1360, 1361, 1362
 1363, 1364, 1365, 1366, 1367, 1368, 1369, 1370, 1371, 1372, 1373, 1374, 1375, 1376, 1377, 1378
 1379, 1380, 1381, 1382, 1383, 1384, 1385, 1386, 1387, 1388, 1389, 1390, 1391, 1392, 1393, 1394
 1395, 1396, 1397, 1398, 1399, 1400, 1401, 1402, 1403, 1404, 1405, 1406, 1407, 1408, 1409, 1410
 1411, 1412, 1413, 1414, 1415, 1416, 1417, 1418, 1419, 1420, 1421, 1422, 1423, 1424, 1425, 1426
 1427, 1428, 1429, 1430, 1431, 1432, 1433, 1434, 1435, 1436, 1437, 1438, 1439, 1440, 1441, 1442
 1443, 1444, 1445, 1446, 1447, 1448, 1449, 1450, 1451, 1452, 1453, 1454, 1455, 1456, 1457, 1458
 1459, 1460, 1461, 1462, 1463, 1464, 1465, 1466, 1467, 1468, 1469, 1470, 1471, 1472, 1473, 1474
 1475, 1476, 1477, 1478, 1479, 1480, 1481, 1482, 1483, 1484, 1485, 1486, 1487, 1488, 1489, 1490
 1491, 1492, 1493, 1494, 1495, 1496, 1497, 1498, 1499, 1500, 1501, 1502, 1503, 1504, 1505, 1506
 1507, 1508, 1509, 1510, 1511, 1512, 1513, 1514, 1515, 1516, 1517, 1518, 3216, 3217, 3218, 3219
 3220, 3221, 3222, 3223, 3224, 3225, 3226, 3227, 3228, 3229, 3230, 3231, 3232, 3233, 3234, 3235
 3236, 3237, 3238, 3239, 3240, 3241, 3242, 3243, 3244, 3245, 3246, 3247, 3248, 3249, 3250, 3251
 3252, 3253, 3254, 3255, 3256, 3257, 3258, 3259, 3260, 3261, 3262, 3263, 3264, 3265, 3266, 3267
 3268, 3269, 3270, 3271, 3272, 3273, 3274, 3275, 3276, 3277, 3278, 3279, 3280, 3281, 3282, 3283
 3284, 3285, 3286, 3287, 3288, 3289, 3290, 3291, 3292, 3293, 3294, 3295, 3296, 3297, 3298, 3299
 3300, 3301, 3302, 3303, 3304, 3305, 3306, 3307, 3308, 3309, 3310, 3311, 3312, 3313, 3314, 3315
 3316, 3317, 3318, 3319, 3320, 3321, 3322, 3323, 3324, 3325, 3326, 3327, 3328, 3329, 3330, 3331
 3332, 3333, 3334, 3335, 3336, 3337, 3338, 3339, 3340, 3341, 3342, 3343, 3344, 3345, 3346, 3347
 3348, 3349, 3350, 3351, 3352, 3353, 3354, 3355, 3356, 3357, 3358, 3359, 3360, 3361, 3362, 3363
 3364, 3365, 3366, 3367, 3368, 3369, 3370, 3371, 3372, 3373, 3374, 3375, 3376, 3377, 3378, 3379
 3380, 3381, 3382, 3383, 3384, 3385, 3386, 3387, 3388, 3389, 3390, 3391, 3392, 3393, 3394, 3395
 3396, 3397, 3398, 3399, 3400, 3401, 3402, 3403, 3404, 3405, 3406, 3407, 3408, 3409, 3410, 3411
 3412, 3413, 3414, 3415, 3416, 3417, 3418, 3419, 3420, 3421, 3422, 3423, 3424, 3425, 3426, 3427
 3428, 3429, 3430, 3431, 3432, 3433, 3434, 3435, 3436, 3437, 3438, 3439, 3440, 3441, 3442, 3443
 3444, 3445, 3446, 3447, 3448, 3449, 3450, 3451, 3452, 3453, 3454, 3455, 3456, 3457, 3458, 3459
 3460, 3461, 3462, 3463, 3464, 3465, 3466, 3467, 3468, 3469, 3470, 3471, 3472, 3473, 3474, 3475
 3476, 3477, 3478, 3479, 3480, 3481, 3482, 3483, 3484, 3485, 3486, 3487, 3488, 3489, 3490, 3491
 3492, 3493, 3494, 3495, 3496, 3497, 3498, 3499, 3500, 3501, 3502, 3503, 3504, 3505, 3506, 3507
 3508, 3509, 3510, 3511, 3512, 3513, 3514, 3515, 3516, 3517, 3518, 3519, 3520, 3521, 3522, 3523
 3524, 3525, 3526, 3527, 3528, 3529, 3530, 3531, 3532, 3533, 3534, 3535, 3536, 3537, 3538, 3539
 3540, 3541, 3542, 3543, 3544, 3545, 3546, 3547, 3548, 3549, 3550, 3551, 3552, 3553, 3554, 3555
 3556, 3557, 3558, 3559, 3560, 3561, 3562, 3563, 3564, 3565, 3566, 3567, 3568, 3569, 3570, 3571
 3572, 3573, 3574, 3575, 3576, 3577, 3578, 3579, 3580, 3581, 3582, 3583, 3584, 3585, 3586, 3587
 3588, 3589, 3590, 3591, 3592, 3593, 3594, 3595, 3596, 3597, 3598, 3599, 3600, 3601, 3602, 3603
 3604, 3605, 3606, 3607, 3608, 3609, 3610, 3611, 3612, 3613, 3614, 3615, 3616, 3617, 3618, 3619
 3620, 3621, 3622, 3623, 3624, 3625, 3626, 3627, 3628, 3629, 3630, 3631, 3632, 3633, 3634, 3635
 3636, 3637, 3638, 3639, 3640, 3641, 3642, 3643, 3644, 3645, 3646, 3647, 3648, 3649, 3650, 3651
 3652, 3653, 3654, 3655, 3656, 3657, 3658, 3659, 3660, 3661, 3662, 3663, 3664, 3665, 3666, 3667
 3668, 3669, 3670, 3671, 3672, 3673, 3674, 3675, 3676, 3677, 3678, 3679, 3680, 3681, 3682, 3683
 3684, 3685, 3686, 3687, 3688, 3689, 3690, 3691, 3692, 3693, 3694, 3695, 3696, 3697, 3698, 3699
 3700, 3701, 3702, 3703, 3704, 3705, 3706, 3707, 3708, 3709, 3710, 3711, 3712, 3713, 3714, 3715
 3716, 3717, 3718, 3719, 3720, 3721, 3722, 3723, 3724, 3725, 3726, 3727, 3728, 3729, 3730, 3731
 3732, 3733, 3734, 3735, 3736, 3737, 3738, 3739, 3740, 3741, 3742, 3743, 3744, 3745, 3746, 3747
 3748, 3749, 3750, 3751, 3752, 3753, 3754, 3755, 3756, 3757, 3758, 3759, 3760, 3761, 3762, 3763
 3764, 3765, 3766, 3767, 3768, 3769, 3770, 3771, 3772, 3773, 3774, 3775, 3776, 3777, 3778, 3779
 3780, 3781, 3782, 3783, 3784, 3785, 3786, 3787, 3788, 3789, 3790, 3791, 3792, 3793, 3794, 3795
 3796, 3797, 3798, 3799, 3800, 3801, 3802, 3803, 3804, 3805, 3806, 3807, 3808, 3809, 3810, 3811
 3812, 3813, 3814, 3815, 3816, 3817, 3818, 3819, 3820, 3821, 3822, 3823, 3824, 3825, 3826, 3827
 3828, 3829, 3830, 3831, 3832, 3833, 3834, 3835, 3836, 3837, 3838, 3839, 3840, 3841, 3842, 3843
 3844, 3845, 3846, 3847, 3848, 3849, 3850, 3851, 3852, 3853, 3854, 3855, 3856, 3857, 3858, 3859
 3860, 3861, 3862, 3863, 3864, 3865, 3866, 3867, 3868, 3869, 3870, 3871, 3872, 3873, 3874, 3875
 3876, 3877, 3878, 3879, 3880, 3881, 3882, 3883, 3884, 3885, 3886, 3887, 3888, 3889, 3890, 3891
 3892, 3893, 3894, 3895, 3896, 3897, 3898, 3899, 3900, 3901, 3902, 3903, 3904, 3905, 3906, 3907
 3908, 3909, 3910, 3911, 3912, 3913, 3914, 3915, 3916, 3917, 3918, 3919, 3920, 3921, 3922, 3923
 3924, 3925, 3926, 3927, 3928, 3929, 3930, 3931, 3932, 3933, 3934, 3935, 3936, 3937, 3938, 3939
 3940, 3941, 3942, 3943, 3944, 3945, 3946, 3947, 3948, 3949, 3950, 3951, 3952, 3953, 3954, 3955
 3956, 3957, 3958, 3959, 3960, 3961, 3962, 3963, 3964, 3965, 3966, 3967, 3968, 3969, 3970, 3971
 3972, 3973, 3974, 3975, 3976, 3977, 3978, 3979, 3980, 3981, 3982, 3983, 3984, 3985, 3986, 3987
 3988, 3989, 3990, 3991, 3992, 3993, 3994, 3995, 3996, 3997, 3998, 3999, 4000, 4001, 4002, 4003
 4004, 4005, 4006, 4007, 4008, 4009, 4010, 4011, 4012, 4013, 4014, 4015, 4016, 4017, 4018, 4019
 4020, 4021, 4022, 4023, 4024, 4025, 4026, 4027, 4028, 4029, 4030, 4031, 4032, 4033, 4034, 4035
 4036, 4037, 4038, 4039, 4040, 4041, 4042, 4043, 4044, 4045, 4046, 4047, 4048, 4049, 4050, 4051
 4052, 4053, 4054, 4055, 4056, 4057, 4058, 4059, 4060, 4061, 4062, 4063, 4064, 4065, 4066, 4067
 4068, 4069, 4070, 4071, 4072, 4073, 4074, 4075, 4076, 4077, 4078, 4079, 4080, 4081, 4082, 4083
 4084, 4085, 4086, 4087, 4088, 4089, 4090, 4091, 4092, 4093, 4094, 4095, 4096, 4097, 4098, 4099
 4100, 4101, 4102, 4103, 4104, 4105, 4106, 4107, 4108, 4109, 4110, 4111, 4112, 4113, 4114, 4115
 4116, 4117, 4118, 4119, 4120, 4121, 4122, 4123, 4124, 4125, 4126, 4127, 4128, 4129, 4130, 4131
 4132, 4133, 4134, 4135, 4136, 4137, 4138, 4139, 4140, 4141, 4142, 4143, 4144, 4145, 4146, 4147
 4148, 4149, 4150, 4151, 4152, 4153, 4154, 4155, 4156, 4157, 4158, 4159, 4160, 4161, 4162, 4163
 4164, 4165, 4166, 4167, 4168, 4169, 4170, 4171, 4172, 4173, 4174, 4175, 4176, 4177, 4178, 4179
 4180, 4181, 4182, 4183, 4184, 4185, 4186, 4187, 4188, 4189, 4190, 4191, 4192, 4193, 4194, 4195
 4196, 4197, 4198, 4199, 4200, 4201, 4202, 4203, 4204, 4205, 4206, 4207, 4208, 4209, 4210, 4211
 4212, 4213, 4214, 4215, 4216, 4217, 4218, 4219, 4220, 4221, 4222, 4223, 4224, 4225, 4226, 4227
 4228, 4229, 4230, 4231, 4232, 4233, 4234, 4235, 4236, 4237, 4238, 4239, 4240, 4241, 4242, 4243
 4244, 4245, 4246, 4247, 4248, 4249, 4250, 4251, 4252, 4253, 4254, 4255, 4256, 4257, 4258, 4259
 4260, 4261, 4262, 4263, 4264, 4265, 4266, 4267, 4268, 4269, 4270, 4271, 4272, 4273, 4274, 4275
 4276, 4277, 4278, 4279, 4280, 4281, 4282, 4283, 4284, 4285, 4286, 4287, 4288, 4289, 4290, 4291
 4292, 4293, 4294, 4295, 4296, 4297, 4298, 4299, 4300, 4301, 4302, 4303, 4304, 4305, 4306, 4307
 4308, 4309, 4310, 4311, 4312, 4313, 4314, 4315, 4316, 4317, 4318, 4319, 4320, 4321, 4322, 4323
 4324, 4325, 4326, 4327, 4328, 4329, 4330, 4331, 4332, 4333, 4334, 4335, 4336, 4337, 4338, 4339
 4340, 4341, 4342, 4343, 4344, 4345, 4346, 4347, 4348, 4349, 4350, 4351, 4352, 4353, 4354, 4355
 4356, 4357, 4358, 4359, 4360, 4361, 4362, 4363, 4364, 4365, 4366, 4367, 4368, 4369, 4370, 4371
 4372, 4373, 4374, 4375, 4376, 4377, 4378, 4379, 4380, 4381, 4382, 4383, 4384, 4385, 4386, 4387
 4388, 4389, 4390, 4391, 4392, 4393, 4394, 4395, 4396, 4397, 4398, 4399, 4400, 4401, 4402, 4403
 4404, 4405, 4406, 4407, 4408, 4409, 4410, 4411, 4412, 4413, 4414, 4415, 4416, 4417, 4418, 4419
 4420, 4421, 4422, 4423, 4424, 4425, 4426, 4427, 4428, 4429, 4430, 4431, 4432, 4433, 4434, 4435
 4436, 4437, 4438, 4439, 4440, 4441, 4442, 4443, 4444, 4445, 4446, 4447, 4448, 4449, 4450, 4451
 4452, 4453, 4454, 4455, 4456, 4457, 4458, 4459, 4460, 4461, 4462, 4463, 4464, 4465, 4466, 4467
 4468, 4469, 4470, 4471, 4472, 4473, 4474, 4475, 4476, 4477, 4478, 4479, 4480, 4481, 4482, 4483
 4484, 4485, 4486, 4487, 4488, 4489, 4490, 4491, 4492, 4493, 4494, 4495, 4496, 4497, 4498, 4499
 4500, 4501, 4502, 4503, 4504, 4505, 4506, 4507, 4508, 4509, 4510, 4511, 4512, 4513, 4514, 4515
 4516, 4517, 4518, 4519, 4520, 4521, 4522, 4523, 4524, 4525, 4526, 4527, 4528, 4529, 4530, 4531
 4532, 4533, 4534, 4535, 4536, 4537, 4538, 4539, 4540, 4541, 4542, 4543, 4544, 4545, 4546, 4547
 4548, 4549, 4550, 4551, 4552, 4553, 4554, 4555, 4556, 4557, 4558, 4559, 4560, 4561, 4562, 4563
 4564, 4565, 4566, 4567, 4568, 4569, 4570, 4571, 4572, 4573, 4574, 4575, 4576, 4577, 4578, 4579
 4580, 4581, 4582, 4583, 4584, 4585, 4586, 4587, 4588, 4589, 4590, 4591, 4592, 4593, 4594, 4595
 4596, 4597, 4598, 4599, 4600, 4601, 4602, 4603, 4604, 4605, 4606, 4607, 4608, 4609, 4610, 4611
 4612, 4613, 4614, 4615, 4616, 4617, 4618, 4619, 4620, 4621, 4622, 4623, 4624, 4625, 4626, 4627
 4628, 4629, 4630, 4631, 4632, 4633, 4634, 4635, 4636, 4637, 4638, 4639, 4640, 4641, 4642, 4643
 4644, 4645, 4646, 4647, 4648, 4649, 4650, 4651, 4652, 4653, 4654, 4655, 4656, 4657, 4658, 4659
 4660, 4661, 4662, 4663, 4664, 4665, 4666, 4667, 4668, 4669, 4670, 4671, 4672, 4673, 4674, 4675
 4676, 4677, 4678, 4679, 4680, 4681, 4682, 4683, 4684, 4685, 4686, 4687, 4688, 4689, 4690, 4691
 4692, 4693, 4694, 4695, 4696, 4697, 4698, 4699, 4700, 4701, 4702, 4703, 4704, 4705, 4706, 4707
 4708, 4709, 4710, 4711, 4712, 4713, 4714, 4715, 4716, 4717, 4718, 4719, 4720, 4721, 4722, 4723
 4724, 4725, 4726, 4727, 4728, 4729, 4730, 4731, 4732, 4733, 4734, 4735, 4736, 4737, 4738, 4739
 4740, 4741, 4742, 4743, 4744, 4745, 4746, 4747, 4748, 4749, 4750, 4751, 4752, 4753, 4754, 4755
 4756, 4757, 4758, 4759, 4760, 4761, 4762, 4763, 4764, 4765, 4766, 4767, 4768, 4769, 4770, 4771
 4772, 4773, 4774, 4775, 4776, 4777, 4778, 4779, 4780, 4781, 4782, 4783, 4784, 4785, 4786, 4787
 4788, 4789, 4790, 4791, 4792, 4793, 4794, 4795, 4796, 4797, 4798, 4799, 4800, 4801, 4802, 4803
 4804, 4805, 4806, 4807, 4808, 4809, 4810, 4811, 4812, 4813, 4814, 4815, 4816, 4817, 4818, 4819
 4820, 4821, 4822, 4823, 4824, 4825, 4826, 4827, 4828, 4829, 4830, 4831, 4832, 4833, 4834, 4835
 4836, 4837, 4838, 4839, 4840, 4841, 4842, 4843, 4844, 4845, 4846, 4847, 4848, 4849, 4850, 4851
 4852, 4853, 4854, 4855, 4856, 4857, 4858, 4859, 4860, 4861, 4862, 4863, 4864, 4865, 4866, 4867
 4868, 4869, 4870, 4871, 4872, 4873, 4874, 4875, 4876, 4877, 4878, 4879, 4880, 4881, 4882, 4883
 4884, 4885, 4886, 4887, 4888, 4889, 4890, 4891, 4892, 4893, 4894, 4895, 4896, 4897, 4898, 4899
 4900, 4901, 4902, 4903, 4904, 4905, 4906, 4907, 4908, 4909, 4910, 4911, 4912, 4913, 4914, 4915
 4916, 4917, 4918, 4919, 4920, 4921, 4922, 4923, 4924, 4925, 4926, 4927, 4928, 4929, 4930, 4931
 4932, 4933, 4934, 4935, 4936, 4937, 4938, 4939, 4940, 4941, 4942, 4943, 4944, 4945, 4946, 4947
 4948, 4949, 4950, 4951, 4952, 4953, 4954, 4955, 4956, 4957, 4958, 4959, 4960, 4961, 4962, 4963
 4964, 4965, 4966, 4967, 4968, 4969, 4970, 4971, 4972, 4973, 4974, 4975, 4976, 4977, 4978, 4979
 4980, 4981, 4982, 4983, 4984, 4985, 4986, 4987, 4988, 4989, 4990, 4991, 4992, 4993, 4994, 4995
 4996, 4997, 4998, 4999, 5000, 5001, 5002, 5003, 5004, 5005, 5006, 5007, 5008, 5009, 5010, 5011
 5012, 5013, 5014, 5015, 5016, 5017, 5018, 5019, 5020, 5021, 5022, 5023, 5024, 5025, 5026, 5027
 5028, 5029, 5030, 5031, 5032, 5033, 5034, 5035, 5036, 5037, 5038, 5039, 5040, 5041, 5042, 5043
 5044, 5045, 5046, 5047, 5048, 5049, 5050, 5051, 5052, 5053, 5054, 5055, 5056, 5057, 5058, 5059
 5060, 5061, 5062, 5063, 5064, 5065, 5066, 5067, 5068, 5069, 5070, 5071, 5072, 5073, 5074, 5075
 5076, 5077, 5078, 5079, 5080, 5081, 5082, 5083, 5084, 5085, 5086, 5087, 5088, 5089, 5090, 5091
 5092, 5093, 5094, 5095, 5096, 5097, 5098, 5099, 5100, 5101, 5102, 5103, 5104, 5105, 5106, 5107
 5108, 5109, 5110, 5111, 5112, 5113, 5114, 5115, 5116, 5117, 5118, 5119, 5120, 5121, 5122, 5123
 5124, 5125, 5126, 5127, 5128, 5129, 5130, 5131, 5132, 5133, 5134, 5135, 5136, 5137, 5138, 5139
 5140, 5141, 5142, 5143, 5144, 5145, 5146, 5147, 5148, 5149, 5150, 5151, 5152, 5153, 5154, 5155
 5156, 5157, 5158, 5159, 5160, 5161, 5162, 5163, 5164, 5165, 5166, 5167, 5168, 5169, 5170, 5171
 5172, 5173, 5174, 5175, 5176, 5177, 5178, 5179, 5180, 5181, 5182, 5183, 5184, 5185, 5186, 5187
 5188, 5189, 5190, 5191, 5192, 5193, 5194, 5195, 5196, 5197, 5198, 5199, 5200, 5201, 5202, 5203
 5204, 5205, 5206, 5207, 5208, 5209, 5210, 5211, 5212, 5213, 5214, 5215, 5216, 5217, 5218, 5219
 5220, 5221, 5222, 5223, 5224, 5225, 5226, 5227, 5228, 5229, 5230, 5231, 5232, 5233, 5234, 5235
 5236, 5237, 5238, 5239, 5240, 5241, 5242, 5243, 5244, 5245, 5246, 5247, 5248, 5249, 5250, 5251
 5252, 5253, 5254, 5255, 5256, 5257, 5258, 5259, 5260, 5261, 5262, 5263, 5264, 5265, 5266, 5267
 5268, 5269, 5270, 5271, 5272, 5273, 5274, 5275, 5276, 5277, 5278, 5279, 5280, 5281, 5282, 5283
 5284, 5285, 5286, 5287, 5288, 5289, 5290, 5291, 5292, 5293, 5294, 5295, 5296, 5297, 5298, 5299
 5300, 5301, 5302, 5303, 5304, 5305, 5306, 5307, 5308, 5309, 5310, 5311, 5312, 5313, 5314, 5315
 5316, 5317, 5318, 5319, 5320, 5321, 5322, 5323, 5324, 5325, 5326, 5327, 5328, 5329, 5330, 5331
 5332, 5333, 5334, 5335, 5336, 5337, 5338, 5339, 5340, 5341, 5342, 5343, 5344, 5345, 5346, 5347
 5348, 5349, 5350, 5351, 5352, 5353, 5354, 5355, 5356, 5357, 5358, 5359, 5360, 5361, 5362, 5363
 5364, 5365, 5366, 5367, 5368, 5369, 5370, 5371, 5372, 5373, 5374, 5375, 5376, 5377, 5378, 5379
 5380, 5381, 5382, 5383, 5384, 5385, 5386, 5387, 5388, 5389, 5390, 5391, 5392, 5393, 5394, 5395
 5396, 5397, 5398, 5399, 5400, 5401, 5402, 5403, 5404, 5405, 5406, 5407, 5408, 5409, 5410, 5411
 5412, 5413, 5414, 5415, 5416, 5417, 5418, 5419, 5420, 5421, 5422, 5423, 5424, 5425, 5426, 5427
 5428, 5429, 5430, 5431, 5432, 5433, 5434, 5435, 5436, 5437, 5438, 5439, 5440, 5441, 5442, 5443
 5444, 5445, 5446, 5447, 5448, 5449, 5450, 5451, 5452, 5453, 5454, 5455, 5456, 5457, 5458, 5459
 5460, 5461, 5462, 5463, 5464, 5465, 5466, 5467, 5468, 5469, 5470, 5471, 5472, 5473, 5474, 5475
 5476, 5477, 5478, 5479, 5480, 5481, 5482, 5483, 5484, 5485, 5486, 5487, 5488, 5489, 5490, 5491
 5492, 5493, 5494, 5495, 5496, 5497, 5498, 5499, 5500, 5501, 5502, 5503, 5504, 5505, 5506, 5507
 5508, 5509, 5510, 5511, 5512, 5513, 5514, 5515, 5516, 5517, 5518, 5519, 5520, 5521, 5522, 5523
 5524, 5525, 5526, 5527, 5528, 5529, 5530, 5531, 5532, 5533, 5534, 5535, 5536, 5537, 5538, 5539
 5540, 5541, 5542, 5543, 5544, 5545, 5546, 5547, 5548, 5549, 5550, 5551, 5552, 5553, 5554, 5555
 5556, 5557, 5558, 5559, 5560, 5561, 5562, 5563, 5564, 5565, 5566, 5567, 5568, 5569, 5570, 5571
 5572, 5573, 5574, 5575, 5576, 5577, 5578, 5579, 5580, 5581, 5582, 5583, 5584, 5585, 5586, 5587
 5588, 5589, 5590, 5591, 5592, 5593, 5594, 5595, 5596, 5597, 5598, 5599, 5600, 5601, 5602, 5603
 5604, 5605, 5606, 5607, 5608, 5609, 5610, 5611, 5612, 5613, 5614, 5615, 5616, 5617, 5618, 5619
 5620, 5621, 5622, 5623, 5624, 5625, 5626, 5627, 5628, 5629, 5630, 5631, 5632, 5633, 5634, 5635
 5636, 5637, 5638, 5639, 5640, 5641, 5642, 5643, 5644, 5645, 5646, 5647, 5648, 5649, 5650, 5651
 5652, 5653, 5654, 5655, 5656, 5657, 5658, 5659, 5660, 5661, 5662, 5663, 5664, 5665, 5666, 5667
 5668, 5669, 5670, 5671, 5672, 5673, 5674, 5675, 5676, 5677, 5678, 5679, 5680, 5681, 5682, 5683
 5684, 5685, 5686, 5687, 5688, 5689, 5690, 5691, 5692, 5693, 5694, 5695, 5696, 5697, 5698, 5699
 5700, 5701, 5702, 5703, 5704, 5705, 5706, 5707, 5708, 5709, 5710, 5711, 5712, 5713, 5714, 5715
 5716, 5717, 5718, 5719, 5720, 5721, 5722, 5723, 5724, 5725, 5726, 5727, 5728, 5729, 5730, 5731
 5732, 5733, 5734, 5735, 5736, 5737, 5738, 5739, 5740, 5741, 5742, 5743, 5744, 5745, 5746, 5747
 5748, 5749, 5750, 5751, 5752, 5753, 5754, 5755, 5756, 5757, 5758, 5759, 5760, 5761, 5762, 5763
 5764, 5765, 5766, 5767, 5768, 5769, 5770, 5771, 5772, 5773, 5774, 5775, 5776, 5777, 5778, 5779
 5780, 5781, 5782, 5783, 5784, 5785, 5786, 5787, 5788, 5789, 5790, 5791, 5792, 5793, 5794, 5795
 5796, 5797, 5798, 5799, 5800, 5801, 5802, 5803, 5804, 5805, 5806, 5807, 5808, 5809, 5810, 5811
 5812, 5813, 5814, 5815, 5816, 5817, 5818, 5819, 5820, 5821, 5822, 5823, 5824, 5825, 5826, 5827
 5828, 5829, 5830, 5831, 5832, 5833, 5834, 5835, 5836, 5837, 5838, 5839, 5840, 5841, 5842, 5843
 5844, 5845, 5846, 5847, 5848, 5849, 5850, 5851, 5852, 5853, 5854, 5855, 5856, 5857, 5858, 5859
 5860, 5861, 5862, 5863, 5864, 5865, 5866, 5867, 5868, 5869, 5870, 5871, 5872, 5873, 5874, 5875
 5876, 5877, 5878, 5879, 5880, 5881, 5882, 5883, 5884, 5885, 5886, 5887, 5888, 5889, 5890, 5891
 5892, 5893, 5894, 5895, 5896, 5897, 5898, 5899, 5900, 5901, 5902, 5903, 5904, 5905, 5906, 5907
 5908, 5909, 5910, 5911, 5912, 5913, 5914, 5915, 5916, 5917, 5918, 5919, 5920, 5921, 5922, 5923
 5924, 5925, 5926, 5927, 5928, 5929, 5930, 5931, 5932, 5933, 5934, 5935, 5936, 5937, 5938, 5939
 5940, 5941, 5942, 5943, 5944, 5945, 5946, 5947, 5948, 5949, 5950, 5951, 5952, 5953, 5954, 5955
 5956, 5957, 5958, 5959, 5960, 5961, 5962, 5963, 5964, 5965, 5966, 5967, 5968, 5969, 5970, 5971
 5972, 5973, 5974, 5975, 5976, 5977, 5978, 5979, 5980, 5981, 5982, 5983, 5984, 5985, 5986, 5987
 5988, 5989, 5990, 5991, 5992, 5993, 5994, 5995, 5996, 5997, 5998, 5999, 6000, 6001, 6002, 6003
 6004, 6005, 6006, 6007, 6008, 6009, 6010, 6011, 6012, 6013, 6014, 6015, 6016, 6017, 6018, 6019
 6020, 6021, 6022, 6023, 6024, 6025, 6026, 6027, 6028, 6029, 6030, 6031, 6032, 6033, 6034, 6035
 6036, 6037, 6038, 6039, 6040, 6041, 6042, 6043, 6044, 6045, 6046, 6047, 6048, 6049, 6050, 6051
 6052, 6053, 6054, 6055, 6056, 6057, 6058, 6059, 6060, 6061, 6062, 6063, 6064, 6065, 6066, 6067
 6068, 6069, 6070, 6071, 6072, 6073, 6074, 6075, 6076, 6077, 6078, 6079, 6080, 6081, 6082, 6083
 6084, 6085, 6086, 6087, 6088, 6089, 6090, 6091, 6092, 6093, 6094, 6095, 6096, 6097, 6098, 6099
 6100, 6101, 6102, 6103, 6104, 6105, 6106, 6107, 6108, 6109, 6110, 6111, 6112, 6113, 6114, 6115
 6116, 6117, 6118, 6119, 6204, 6205, 6206, 6207, 6208, 6209, 6210, 6211, 6212, 6213, 6214, 6215
 6216, 6217, 6218, 6219, 6220, 6221, 6222, 6223, 6224, 6225, 6226, 6227, 6228, 6229, 6230, 6231
 6232, 6233, 6234, 6235, 6236, 6237, 6238, 6239, 6240, 6241, 6242, 6243, 6244, 6245, 6246, 6247
 6248, 6249, 6250, 6251, 6252, 6253, 6254, 6255, 6256, 6257, 6258, 6259, 6260, 6261, 6262, 6263
 6264, 6265, 6266, 6267, 6268, 6269, 6270, 6271, 6272, 6273, 6274, 6275, 6276, 6277, 6278, 6279
 6280, 6281, 6282, 6283, 6284, 6285, 6286, 6287, 6288, 6289, 6290, 6291, 6292, 6293, 6294, 6295
 6296, 6297, 6298, 6299, 6300, 6301, 6302, 6303, 6304, 6305, 6306, 6307, 6308, 6309, 6310, 6311
 6312, 6313, 6314, 6315, 6316, 6317, 6318, 6319, 6320, 6321, 6322, 6323, 6324, 6325, 6326, 6327
 6328, 6329, 6330, 6331, 6332, 6333, 6334, 6335, 6336, 6337, 6338, 6339, 6340, 6341, 6342, 6343
 6344, 6345, 6346, 6347, 6348, 6349, 6350, 6351, 6352, 6353, 6354, 6355, 6356, 6357, 6358, 6359
 6360, 6361, 6362, 6363, 6364, 6365, 6366, 6367, 6368, 6369, 6370, 6371, 6372, 6373, 6374, 6375
 6376, 6377, 6378, 6379, 6380, 6381, 6382, 6383, 6384, 6385, 6386, 6387, 6388, 6389, 6390, 6391
 6392, 6393, 6394, 6395, 6396, 6397, 6398, 6399, 6400, 6401, 6402, 6403, 6404, 6405, 6406, 6407
 6408, 6409, 6410, 6411, 6412, 6413, 6414, 6415, 6416, 6417, 6418, 6419, 6420, 6421, 6422, 6423
 6424, 6425, 6426, 6427, 6428, 6429, 6430, 6431, 6432, 6433, 6434, 6435, 6436, 6437, 6438, 6439
 6440, 6441, 6442, 6443, 6444, 6445, 6446, 6447, 6448, 6449, 6450, 6451, 6452, 6453, 6454, 6455
 6456, 6457, 6458, 6459, 6460, 6461, 6462, 6463, 6464, 6465, 6466, 6467, 6468, 6469, 6470, 6471
 6472, 6473, 6474, 6475, 6476, 6477, 6478, 6479, 6480, 6481, 6482, 6483, 6484, 6485, 6486, 6487
 6488, 6489, 6490, 6491, 6492, 6493, 6494, 6495, 6496, 6497, 6498, 6499, 6500, 6501, 6502, 6503
 6504, 6505, 6506, 6507, 6508, 6509, 6510, 6511, 6512, 6513, 6514, 6515, 6516, 6517, 6518, 6519
 6520, 6521, 6522, 6523, 6524, 6525, 6526, 6527, 6528, 6529, 6530, 6531, 6532, 6533, 6534, 6535
 6536, 6537, 6538, 6539, 6540, 6541, 6542, 6543, 6544, 6545, 6546, 6547, 6548, 6549, 6550, 6551
 6552, 6553, 6554, 6555, 6556, 6557, 6558, 6559, 6560, 6561, 6562, 6563, 6564, 6565, 6566, 6567
 6568, 6569, 6570, 6571, 6572, 6573, 6574, 6575, 6576, 6577, 6578, 6579, 6580, 6581, 6582, 6583
 6584, 6585, 6586, 6587, 6588, 6589, 6590, 6591, 6592, 6593, 6594, 6595, 6596, 6597, 6598, 6599
 6600, 6601, 6602, 6603, 6604, 6605, 6606, 6607, 6608, 6609, 6610, 6611, 6612, 6613, 6614, 6615
 6616, 6617, 6618, 6619, 6620, 6621, 6622, 6623, 6624, 6625, 6626, 6627, 6628, 6629, 6630, 6631
 6632, 6633, 6634, 6635, 6636, 6637, 6638, 6639, 6640, 6641, 6642, 6643, 6644, 6645, 6646, 6647
 6648, 6649, 6650, 6651, 6652, 6653, 6654, 6655, 6656, 6657, 6658, 6659, 6660, 6661, 6662, 6663
 6664, 6665, 6666, 6667, 6668, 6669, 6670, 6671, 6672, 6673, 6674, 6675, 6676, 6677, 6678, 6679
 6680, 6681, 6682, 6683, 6684, 6685, 6686, 6687, 6688, 6689, 6690, 6691, 6692, 6693, 6694, 6695
 6696, 6697, 6698, 6699, 6700, 6701, 6702, 6703, 6704, 6705, 6706, 6707, 6708, 6709, 6710, 6711
 6712, 6713, 6714, 6715, 6716, 6717, 6718, 6719, 6720, 6721, 6722, 6723, 6724, 6725, 6726, 6727
 6728, 6729, 6730, 6731, 6732, 6733, 6734, 6735, 6736, 6737, 6738, 6739, 6740, 6741, 6742, 6743
 6744, 6745, 6746, 6747, 6748, 6749, 6750, 6751, 6752, 6753, 6754, 6755, 6756, 6757, 6758, 6759
 6760, 6761, 6762, 6763, 6764, 6765, 6766, 6767, 6768, 6769, 6770, 6771, 6772, 6773, 6774, 6775
 6776, 6777, 6778, 6779, 6780, 6781, 6782, 6783, 6784, 6785, 6786, 6787, 6788, 6789, 6790, 6791
 6792, 6793, 6794, 6795, 6796, 6797, 6798, 6799, 6800, 6801, 6802, 6803, 6804, 6805, 6806, 6807
 6808, 6809, 6810, 6811, 6812, 6813, 6814, 6815, 6816, 6817, 6818, 6819, 6820, 6821, 6822, 6823
 6824, 6825, 6826, 6827, 6828, 6829, 6830, 6831, 6832, 6833, 6834, 6835, 6836, 6837, 6838, 6839
 6840, 6841, 6842, 6843, 6844, 6845, 6846, 6847, 6848, 6849, 6850, 6851, 6852, 6853, 6854, 6855
 6856, 6857, 6858, 6859, 6860, 6861, 6862, 6863, 6864, 6865, 6866, 6867, 6868, 6869, 6870, 6871
 6872, 6873, 6874, 6875, 6876, 6877, 6878, 6879, 6880, 6881, 6882, 6883, 6884, 6885, 6886, 6887
 6888, 6889, 6890, 6891, 6892, 6893, 6894, 6895, 6896, 6897, 6898, 6899, 6900, 6901, 6902, 6903
 6904, 6905, 6906, 6907, 6908, 6909, 6910, 6911, 6912, 6913, 6914, 6915, 6916, 6917, 6918, 6919
 6920, 6921, 6922, 6923, 6924, 6925, 6926, 6927, 6928, 6929, 6930, 6931, 6932, 6933, 6934, 6935
 6936, 6937, 6938, 6939, 6940, 6941, 6942, 6943, 6944, 6945, 6946, 6947, 6948, 6949, 6950, 6951
 6952, 6953, 6954, 6955, 6956, 6957, 6958, 6959, 6960, 6961, 6962, 6963, 6964, 6965, 6966, 6967
 6968, 6969, 6970, 6971, 6972, 6973, 6974, 6975, 6976, 6977, 6978, 6979, 6980, 6981, 6982, 6983
 6984, 6985, 6986, 6987, 6988, 6989, 6990, 6991, 6992, 6993, 6994, 6995, 6996, 6997, 6998, 6999
 7000, 7001, 7002, 7003, 7004, 7005, 7006, 7007, 7008, 7009, 7010, 7011, 7012, 7013, 7014, 7015
 7016, 7017, 7018, 7019, 7020, 7021, 7022, 7023, 7024, 7025, 7026, 7027, 7028, 7029, 7030, 7031
 7032, 7033, 7034, 7035, 7036, 7037, 7038, 7039, 7040, 7041, 7042, 7043, 7044, 7045, 7046, 7047
 7048, 7049, 7050, 7051, 7052, 7053, 7054, 7055, 7056, 7057, 7058, 7059, 7060, 7061, 7062, 7063
 7064, 7065, 7066, 7067, 7068, 7069, 7070, 7071, 7072, 7073, 7074, 7075, 7076, 7077, 7078, 7079
 7080, 7081, 7082, 7083, 7084, 7085, 7086, 7087, 7088, 7089, 7090, 7091, 7092, 7093, 7094, 7095
 7096, 7097, 7098, 7099, 7100, 7101, 7102, 7103, 7104, 7105, 7106, 7107, 7108, 7109, 7110, 7111
 7112, 7113, 7114, 7115, 7116, 7117, 7118, 7119, 7120, 7121, 7122, 7123, 7124, 7125, 7126, 7127
 7128, 7129, 7130, 7131, 7132, 7133, 7134, 7135, 7136, 7137, 7138, 7139, 7140, 7141, 7142, 7143
 7144, 7145, 7146, 7147, 7148, 7149, 7150, 7151, 7152, 7153, 7154, 7155, 7156, 7157, 7158, 7159
 7160, 7161, 7162, 7163, 7164, 7165, 7166, 7167, 7168, 7169, 7170, 7171, 7172, 7173, 7174, 7175
 7176, 7177, 7178, 7179, 7180, 7181, 7182, 7183, 7184, 7185, 7186, 7187, 7188, 7189, 7190, 7191
 7192, 7193, 7194, 7195, 7196, 7197, 7198, 7199, 7200, 7201, 7202, 7203, 7204, 7205, 7206, 7207
 7208, 7209, 7210, 7211, 7212, 7213, 7214, 7215, 7216, 7217, 7218, 7219, 7220, 7221, 7222, 7223
 7224, 7225, 7226, 7227, 7228, 7229, 7230, 7231, 7232, 7233, 7234, 7235, 7236, 7237, 7238, 7239
 7240, 7241, 7242, 7243, 7244, 7245, 7246, 7247, 7248, 7249, 7250, 7251, 7252, 7253, 7254, 7255
 7256, 7257, 7258, 7259, 7260, 7261, 7262, 7263, 7264, 7265, 7266, 7267, 7268, 7269, 7270, 7271
 7272, 7273, 7274, 7275, 7276, 7277, 7278, 7279, 7280, 7281, 7282, 7283, 7284, 7285, 7286, 7287
 7288, 7289, 7290, 7291, 7292, 7293, 7294, 7295, 7296, 7297, 7298, 7299, 7300, 7301, 7302, 7303
 7304, 7305, 7306, 7307, 7308, 7309, 7310, 7311, 7312, 7313, 7314, 7315, 7316, 7317, 7318, 7319
 7320, 7321, 7322, 7323, 7324, 7325, 7326, 7327, 7328, 7329, 7330, 7331, 7332, 7333, 7334, 7335
 7336, 7337, 7338, 7339, 7340, 7341, 7342, 7343, 7344, 7345, 7346, 7347, 7348, 7349, 7350, 7351
 7352, 7353, 7354, 7355, 7356, 7357, 7358, 7359, 7360, 7361, 7362, 7363, 7364, 7365, 7366, 7367
 7368, 7369, 7370, 7371, 7372, 7373, 7374, 7375, 7376, 7377, 7378, 7379, 7380, 7381, 7382, 7383
 7384, 7385, 7386, 7387, 7388, 7389, 7390, 7391, 7392, 7393, 7394, 7395, 7396, 7397, 7398, 7399
 7400, 7401, 7402, 7403, 7404, 7405, 7406, 7407, 7408, 7409, 7410, 7411, 7412, 7413, 7414, 7415
 7416, 7417, 7418, 7419, 7420, 7421, 7422, 7423, 7424, 7425, 7426, 7427, 7428, 7429, 7430, 7431
 7432, 7433, 7434, 7435, 7436, 7437, 7438, 7439, 7440, 7441, 7442, 7443, 7444, 7445, 7446, 7447
 7448, 7449, 7450, 7451, 7452, 7453, 7454, 7455, 7456, 7457, 7458, 7459, 7460, 7461, 7462, 7463
 7464, 7465, 7466, 7467, 7468, 7469, 7470, 7471, 7472, 7473, 7474, 7475, 7476, 7477, 7478, 7479
 7480, 7481, 7482, 7483, 7484, 7485, 7486, 7487, 7488, 7489, 7490, 7491, 7492, 7493, 7494, 7495
 7496, 7497, 7498, 7499, 7500, 7501, 7502, 7503, 7504, 7505, 7506, 7507, 7508, 7509, 7510, 7511
 7512, 7513, 7514, 7515, 7516, 7517, 7518, 7519, 7520, 7521, 7522, 7523, 7524, 7525, 7526, 7527
 7528, 7529, 7530, 7531, 7532, 7533, 7534, 7535, 7536, 7537, 7538, 7539, 7540, 7541, 7542, 7543
 7544, 7545, 7546, 7547, 7548, 7549, 7550, 7551, 7552, 7553, 7554, 7555, 7556, 7557, 7558, 7559
 7560, 7561, 7562, 7563, 7564, 7565, 7566, 7567, 7568, 7569, 7570, 7571, 7572, 7573, 7574, 7575
 7576, 7577, 7578, 7579, 7580, 7581, 7582, 7583, 7584, 7585, 7586, 7587, 7588, 7589, 7590, 7591
 7592, 7593, 7594, 7595, 7596, 7597, 7598, 7599, 7600, 7601, 7602, 7603, 7604, 7605, 7606, 7607
 7608, 7609, 7610, 7611, 7612, 7613, 7614, 7615, 7616, 7617, 7618, 7619, 7620, 7621, 7622, 7623
 7624, 7625, 7626, 7627, 7628, 7629, 7630, 7631, 7632, 7633, 7634, 7635, 7636, 7637, 7638, 7639
 7640, 7641, 7642, 7643, 7644, 7645, 7646, 7647, 7648, 7649, 7650, 7651, 7652, 7653, 7654, 7655
*Nset, nset=P6
   61,  103,  125,  127,  129,  131,  133,  135,  137,  139, 8633, 8634, 8635, 8636, 8637, 8638
 8639, 8640, 8641, 8642, 8643, 8644, 8645, 8646, 8647, 8648, 8649, 8650, 8651, 8652, 8653, 8654
 8655, 8656, 8657, 8658, 8659, 8660, 8661, 8662, 8663, 8664, 8665, 8666, 8667, 8668, 8669, 8670
 8671, 8672, 8673, 8674, 8675, 8676, 8677, 8678, 8679, 8680, 8681, 8682, 8683, 8684, 8685, 8686
 8687, 8688, 8689, 8690, 8691, 8692, 8693, 8694, 8695, 8696, 8697, 8698, 8699, 8700, 8701, 8702
 8703, 8704, 8705, 8706, 8707, 8708, 8709, 8710, 8711, 8712, 8713, 8714, 8715, 8716, 8717, 8718
 8719, 8720, 8721, 8722, 8723, 8724, 8725, 8726, 8727, 8728, 8729, 8730, 8731, 8732, 8733, 8734
 8735, 8736, 8737, 8738, 8739, 8740, 8741, 8742, 8743, 8744, 8745, 8746, 8747, 8748, 8749, 8750
 8751, 8752, 8753, 8754, 8755, 8756, 8757, 8758, 8759, 8760, 8761, 8762, 8763, 8764, 8765, 8766
 8767, 8768, 8769, 8770, 8771, 8772, 8773, 8774, 8775, 8776, 8777, 8778, 8779, 8780, 8781, 8782
 8783, 8784, 8785, 8786, 8787, 8788, 8789, 8790, 8791, 8792, 8793, 8794, 8795, 8796, 8797, 8798
 8799, 8800, 8801, 8802, 8803, 8804, 8805, 8806, 8807, 8808, 8809, 8810, 8811, 8812, 8813, 8814
 8815, 8816, 8817, 8818, 8819, 8820, 8821, 8822, 8823, 8824, 8825, 8826, 8827, 8828, 8829, 8830
 8831, 8832, 8833, 8834, 8835, 8836, 8837, 8838, 8839, 8840, 8841, 8842, 8843, 8844, 8845, 8846
 8847, 8848, 8849, 8850, 8851, 8852, 8853, 8854, 8855, 8856, 8857, 8858, 8859, 8860, 8861, 8862
 8863, 8864, 8865, 8866, 8867, 8868, 8869, 8870, 8871, 8872, 8873, 8874, 8875, 8876, 8877, 8878
 8879, 8880, 8881, 8882, 8883, 8884, 8885, 8886, 8887, 8888, 8889, 8890, 8891, 8892, 8893, 8894
 8895, 8896, 8897, 8898, 8899, 8900, 8901, 8902, 8903, 8904, 8905, 8906, 8907, 8908, 8909, 8910
 8911, 8912, 8913, 8914, 8915, 8916, 8917, 8918, 8919, 8920, 8921, 8922, 8923, 8924, 8925, 8926
 8927, 8928, 8929, 8930, 8931, 8932, 8933, 8934, 8935, 8936, 8937, 8938, 8939, 8940, 8941, 8942
 8943, 8944, 8945, 8946, 8947, 8948, 8949, 8950, 8951, 8952, 8953, 8954, 8955, 8956, 8957, 8958
 8959, 8960, 8961, 8962, 8963, 8964, 8965, 8966, 8967, 8968, 8969, 8970, 8971, 8972, 8973, 8974
 8975, 8976, 8977, 8978, 8979, 8980, 8981, 8982, 8983, 8984, 8985, 8986, 8987, 8988, 8989, 8990
 8991, 8992, 8993, 8994, 8995, 8996, 8997, 8998, 8999, 9000, 9001, 9002, 9003, 9004, 9005, 9006
 9007, 9008, 9009, 9010, 9011, 9012, 9013, 9014, 9015, 9016, 9017, 9018, 9019, 9020, 9021, 9022
 9023, 9024, 9025, 9026, 9027, 9028, 9029, 9030, 9031, 9032, 9033, 9034, 9035, 9036, 9037, 9038
 9039, 9040, 9041, 9042, 9043, 9044, 9045, 9046, 9047, 9048, 9049, 9050, 9051, 9052, 9053, 9054
 9055, 9056, 9057, 9058, 9059, 9060, 9061, 9062, 9063, 9064, 9065, 9066, 9067, 9068, 9069, 9070
 9071, 9072, 9073, 9074, 9075, 9076, 9077, 9078, 9079, 9080, 9081, 9082, 9083, 9084, 9085, 9086
 9087, 9088, 9089, 9090, 9091, 9092, 9093, 9094, 9095, 9096, 9097, 9098, 9099, 9100, 9101, 9102
 9103, 9104, 9105, 9106, 9107, 9108, 9109, 9110, 9111, 9112, 9113, 9114, 9115, 9116, 9117, 9118
 9119, 9120, 9121, 9122, 9123, 9124, 9125, 9126, 9127, 9128, 9129, 9130, 9131, 9132, 9133, 9134
 9135, 9136, 9137, 9138, 9139, 9140, 9141, 9142, 9143, 9144, 9145, 9146, 9147, 9148, 9149, 9150
 9151, 9152, 9153, 9154, 9155, 9156, 9157, 9158, 9159, 9160, 9161, 9162, 9163, 9164, 9165, 9166
 9167, 9168, 9169, 9170, 9171, 9172, 9173, 9174, 9175, 9176, 9177, 9178, 9179, 9180, 9181, 9182
 9183, 9184, 9185, 9186, 9187, 9188, 9189, 9190, 9191, 9192, 9193, 9194, 9195, 9196, 9197, 9198
 9199, 9200, 9201, 9202, 9203, 9204, 9205, 9206, 9207, 9208, 9209, 9210, 9211, 9212, 9213, 9214
 9215, 9216, 9217, 9218, 9219, 9220, 9221, 9222, 9223, 9224, 9225, 9226, 9227, 9228, 9229, 9230
 9231, 9232, 9233, 9234, 9235, 9236, 9237, 9238, 9239, 9240, 9241, 9242, 9243, 9244, 9245, 9246
 9247, 9248, 9249, 9250, 9251, 9252, 9253, 9254, 9255, 9256, 9257, 9258, 9259, 9260, 9261, 9262
 9263, 9264, 9265, 9266, 9267, 9268, 9269, 9270, 9271, 9272, 9273, 9274, 9275, 9276, 9277, 9278
 9279, 9280, 9281, 9282, 9283, 9284, 9285, 9286, 9287, 9288, 9289, 9290, 9291, 9292, 9293, 9294
 9295, 9296, 9297, 9298, 9299, 9300, 9301, 9302, 9303, 9304, 9305, 9306, 9307, 9308, 9309, 9310
 9311, 9312, 9313, 9314, 9315, 9316, 9317, 9318, 9319, 9320, 9321, 9322, 9323, 9324, 9325, 9326
 9327, 9328, 9329, 9330, 9331, 9332, 9333, 9334, 9335, 9336, 9337, 9338, 9339, 9340, 9341, 9342
 9343, 9344, 9345, 9346, 9347, 9348, 9349, 9350, 9351, 9352, 9353, 9354, 9355, 9356, 9357, 9358
 9359, 9360, 9361, 9362, 9363, 9364, 9365, 9366, 9367, 9368, 9369, 9370, 9371, 9372, 9373, 9374
 9375, 9376, 9377, 9378, 9379, 9380, 9381, 9382, 9383, 9384, 9385, 9386, 9387, 9388, 9389, 9390
 9391, 9392, 9393, 9394, 9395, 9396, 9397, 9398, 9399, 9400, 9401, 9402, 9403, 9404, 9405, 9406
 9407, 9408, 9409, 9410, 9411, 9412, 9413, 9414, 9415, 9416, 9417, 9418, 9419, 9420, 9421, 9422
 9423, 9424, 9425, 9426, 9427, 9428, 9429, 9430, 9431, 9432, 9433, 9434, 9435, 9436, 9437, 9438
 9439, 9440, 9441, 9442, 9443, 9444, 9445, 9446, 9447, 9448, 9449, 9450, 9451, 9452, 9453, 9454
 9455, 9456, 9457, 9458, 9459, 9460, 9461, 9462, 9463, 9464, 9465, 9466, 9467, 9468, 9469, 9470
 9471, 9472, 9473, 9474, 9475, 9476, 9477, 9478, 9479, 9480, 9481, 9482, 9483, 9484, 9485, 9486
 9487, 9488, 9489, 9490, 9491, 9492, 9493, 9494, 9495, 9496, 9497, 9498, 9499, 9500, 9501, 9502
 9503, 9504, 9505, 9506, 9507
*Elset, elset=P6, generate
 8644,  9523,     1
** Section: P5  Profile: C100
*Beam Section, elset=P5, material=S235JR, poisson = 0.3, temperature=GRADIENTS, section=ARBITRARY
5, 29.1607, 30., 29.1607, 48., 4.
-16.8393, 48., 4.
-16.8393, -48., 4.
29.1607, -48., 4.
29.1607, -30., 4.
0.,0.906351,0.422525
** Section: P2  Profile: C125
*Beam Section, elset=P2, material=S355JR, poisson = 0.3, temperature=GRADIENTS, section=ARBITRARY
5, 36.9745, 37.5, 36.9745, 60.5, 4.
-21.5255, 60.5, 4.
-21.5255, -60.5, 4.
36.9745, -60.5, 4.
36.9745, -37.5, 4.
1.,0.,0.
** Section: P4  Profile: C125
*Beam Section, elset=P4, material=S235JR, poisson = 0.3, temperature=GRADIENTS, section=ARBITRARY
5, 36.9745, 37.5, 36.9745, 60.5, 4.
-21.5255, 60.5, 4.
-21.5255, -60.5, 4.
36.9745, -60.5, 4.
36.9745, -37.5, 4.
1.,0.,0.
** Section: P3  Profile: C125
*Beam Section, elset=P3, material=S235JR, poisson = 0.3, temperature=GRADIENTS, section=ARBITRARY
5, 36.9745, 37.5, 36.9745, 60.5, 4.
-21.5255, 60.5, 4.
-21.5255, -60.5, 4.
36.9745, -60.5, 4.
36.9745, -37.5, 4.
1.,0.,0.
** Section: P6  Profile: C50
*Beam Section, elset=P6, material=S235JR, poisson = 0.3, temperature=GRADIENTS, section=ARBITRARY
3, 16.875, 22.5, -5.625, 22.5, 5.
-5.625, -22.5, 5.
16.875, -22.5, 5.
1.,0.,0.
*End Part
**  
**
** ASSEMBLY
**
*Assembly, name=Assembly
**  
*Instance, name=FRAME, part=SteelFrame
*End Instance
**  
*Nset, nset=BASES, instance=FRAME
  62, 104, 126, 128, 130, 132, 134, 136, 138, 140
*Nset, nset=CONTACT_ROW_1, instance=FRAME
  39,  53, 105, 106, 107, 108, 109, 110, 111, 112, 113, 114, 115, 116, 117, 118
 119, 120, 121, 122, 123, 124
*Nset, nset=CONTACT_ROW_2, instance=FRAME
  37,  51,  83,  84,  85,  86,  87,  88,  89,  90,  91,  92,  93,  94,  95,  96
  97,  98,  99, 100, 101, 102
*Nset, nset=CONTACT_ROW_3, instance=FRAME
 36, 50, 63, 64, 65, 66, 67, 68, 69, 70, 71, 72, 73, 74, 75, 76
 77, 78, 79, 80, 81, 82
*Nset, nset=CONTACT_ROW_4, instance=FRAME
  1,  4,  6,  7,  8,  9, 10, 11, 12, 13, 14, 16, 17, 18, 19, 20
 21, 22, 23, 24, 25, 26
*End Assembly
** 
** MATERIALS
** 
*Material, name=S235JR
*Density
 7.85e-09,
*Elastic
210000., 0.3
*Material, name=S355JR
*Density
 7.85e-09,
*Elastic
210000., 0.3
** 
** BOUNDARY CONDITIONS
** 
** Name: GroundFixity Type: Symmetry/Antisymmetry/Encastre
*Boundary
BASES, ENCASTRE
** ----------------------------------------------------------------
** 
** STEP: D
** 
*Step, name=D, nlgeom=NO
*Static
1., 1., 1e-05, 1.
** 
** LOADS
** 
** Name: D_Contact_1   Type: Concentrated force
*Cload, op=NEW
CONTACT_ROW_1, 2, 0.
CONTACT_ROW_1, 3, -126.993
** Name: D_Contact_2   Type: Concentrated force
*Cload, op=NEW
CONTACT_ROW_2, 2, 0.
CONTACT_ROW_2, 3, -126.993
** Name: D_Contact_3   Type: Concentrated force
*Cload, op=NEW
CONTACT_ROW_3, 2, 0.
CONTACT_ROW_3, 3, -126.993
** Name: D_Contact_4   Type: Concentrated force
*Cload, op=NEW
CONTACT_ROW_4, 2, 0.
CONTACT_ROW_4, 3, -126.993
** Name: D_SteelGravity   Type: Gravity
*Dload, op=NEW
, GRAV, 9810., 0., 0., -1.
** 
** OUTPUT REQUESTS
** 
*Restart, write, frequency=0
** 
** FIELD OUTPUT: Nodal
** 
*Output, field, frequency=99999
*Node Output
RF, RM, U
** 
** FIELD OUTPUT: Section_P2
** 
*Element Output, elset=FRAME.P2, directions=YES
1, 2, 3, 4, 5, 6, 7, 8, 9, 10, 11
S, SF
** 
** FIELD OUTPUT: Section_P3
** 
*Element Output, elset=FRAME.P3, directions=YES
1, 2, 3, 4, 5, 6, 7, 8, 9, 10, 11
S, SF
** 
** FIELD OUTPUT: Section_P4
** 
*Element Output, elset=FRAME.P4, directions=YES
1, 2, 3, 4, 5, 6, 7, 8, 9, 10, 11
S, SF
** 
** FIELD OUTPUT: Section_P5
** 
*Element Output, elset=FRAME.P5, directions=YES
1, 2, 3, 4, 5, 6, 7, 8, 9, 10, 11
S, SF
** 
** FIELD OUTPUT: Section_P6
** 
*Element Output, elset=FRAME.P6, directions=YES
1, 2, 3, 4, 5, 6, 7
S, SF
** 
** HISTORY OUTPUT: Energy
** 
*Output, history
*Energy Output
ALLSE, ALLWK
*End Step
** ----------------------------------------------------------------
** 
** STEP: S
** 
*Step, name=S, nlgeom=NO
*Static
1., 1., 1e-05, 1.
** 
** LOADS
** 
** Name: D_Contact_1   Type: Concentrated force
*Cload, op=NEW
** Name: D_Contact_2   Type: Concentrated force
*Cload, op=NEW
** Name: D_Contact_3   Type: Concentrated force
*Cload, op=NEW
** Name: D_Contact_4   Type: Concentrated force
*Cload, op=NEW
** Name: D_SteelGravity   Type: Gravity
*Dload, op=NEW
** Name: S_Contact_1   Type: Concentrated force
*Cload, op=NEW
CONTACT_ROW_1, 2, 0.
CONTACT_ROW_1, 3, -733.2
** Name: S_Contact_2   Type: Concentrated force
*Cload, op=NEW
CONTACT_ROW_2, 2, 0.
CONTACT_ROW_2, 3, -733.2
** Name: S_Contact_3   Type: Concentrated force
*Cload, op=NEW
CONTACT_ROW_3, 2, 0.
CONTACT_ROW_3, 3, -733.2
** Name: S_Contact_4   Type: Concentrated force
*Cload, op=NEW
CONTACT_ROW_4, 2, 0.
CONTACT_ROW_4, 3, -733.2
** 
** OUTPUT REQUESTS
** 
*Restart, write, frequency=0
** 
** FIELD OUTPUT: Nodal
** 
*Output, field, frequency=99999
*Node Output
RF, RM, U
** 
** FIELD OUTPUT: Section_P2
** 
*Element Output, elset=FRAME.P2, directions=YES
1, 2, 3, 4, 5, 6, 7, 8, 9, 10, 11
S, SF
** 
** FIELD OUTPUT: Section_P3
** 
*Element Output, elset=FRAME.P3, directions=YES
1, 2, 3, 4, 5, 6, 7, 8, 9, 10, 11
S, SF
** 
** FIELD OUTPUT: Section_P4
** 
*Element Output, elset=FRAME.P4, directions=YES
1, 2, 3, 4, 5, 6, 7, 8, 9, 10, 11
S, SF
** 
** FIELD OUTPUT: Section_P5
** 
*Element Output, elset=FRAME.P5, directions=YES
1, 2, 3, 4, 5, 6, 7, 8, 9, 10, 11
S, SF
** 
** FIELD OUTPUT: Section_P6
** 
*Element Output, elset=FRAME.P6, directions=YES
1, 2, 3, 4, 5, 6, 7
S, SF
** 
** HISTORY OUTPUT: Energy
** 
*Output, history
*Energy Output
ALLSE, ALLWK
*End Step
** ----------------------------------------------------------------
** 
** STEP: W
** 
*Step, name=W, nlgeom=NO
*Static
1., 1., 1e-05, 1.
** 
** LOADS
** 
** Name: S_Contact_1   Type: Concentrated force
*Cload, op=NEW
** Name: S_Contact_2   Type: Concentrated force
*Cload, op=NEW
** Name: S_Contact_3   Type: Concentrated force
*Cload, op=NEW
** Name: S_Contact_4   Type: Concentrated force
*Cload, op=NEW
** Name: W_Contact_1   Type: Concentrated force
*Cload, op=NEW
CONTACT_ROW_1, 2, 35.556
CONTACT_ROW_1, 3, -76.2707
** Name: W_Contact_2   Type: Concentrated force
*Cload, op=NEW
CONTACT_ROW_2, 2, 35.556
CONTACT_ROW_2, 3, -76.2707
** Name: W_Contact_3   Type: Concentrated force
*Cload, op=NEW
CONTACT_ROW_3, 2, 35.556
CONTACT_ROW_3, 3, -76.2707
** Name: W_Contact_4   Type: Concentrated force
*Cload, op=NEW
CONTACT_ROW_4, 2, 35.556
CONTACT_ROW_4, 3, -76.2707
** 
** OUTPUT REQUESTS
** 
*Restart, write, frequency=0
** 
** FIELD OUTPUT: Nodal
** 
*Output, field, frequency=99999
*Node Output
RF, RM, U
** 
** FIELD OUTPUT: Section_P2
** 
*Element Output, elset=FRAME.P2, directions=YES
1, 2, 3, 4, 5, 6, 7, 8, 9, 10, 11
S, SF
** 
** FIELD OUTPUT: Section_P3
** 
*Element Output, elset=FRAME.P3, directions=YES
1, 2, 3, 4, 5, 6, 7, 8, 9, 10, 11
S, SF
** 
** FIELD OUTPUT: Section_P4
** 
*Element Output, elset=FRAME.P4, directions=YES
1, 2, 3, 4, 5, 6, 7, 8, 9, 10, 11
S, SF
** 
** FIELD OUTPUT: Section_P5
** 
*Element Output, elset=FRAME.P5, directions=YES
1, 2, 3, 4, 5, 6, 7, 8, 9, 10, 11
S, SF
** 
** FIELD OUTPUT: Section_P6
** 
*Element Output, elset=FRAME.P6, directions=YES
1, 2, 3, 4, 5, 6, 7
S, SF
** 
** HISTORY OUTPUT: Energy
** 
*Output, history
*Energy Output
ALLSE, ALLWK
*End Step
** ----------------------------------------------------------------
** 
** STEP: D_07S
** 
*Step, name=D_07S, nlgeom=NO
*Static
1., 1., 1e-05, 1.
** 
** LOADS
** 
** Name: D_07S_Contact_1   Type: Concentrated force
*Cload, op=NEW
CONTACT_ROW_1, 2, 0.
CONTACT_ROW_1, 3, -640.233
** Name: D_07S_Contact_2   Type: Concentrated force
*Cload, op=NEW
CONTACT_ROW_2, 2, 0.
CONTACT_ROW_2, 3, -640.233
** Name: D_07S_Contact_3   Type: Concentrated force
*Cload, op=NEW
CONTACT_ROW_3, 2, 0.
CONTACT_ROW_3, 3, -640.233
** Name: D_07S_Contact_4   Type: Concentrated force
*Cload, op=NEW
CONTACT_ROW_4, 2, 0.
CONTACT_ROW_4, 3, -640.233
** Name: D_07S_SteelGravity   Type: Gravity
*Dload, op=NEW
, GRAV, 9810., 0., 0., -1.
** Name: W_Contact_1   Type: Concentrated force
*Cload, op=NEW
** Name: W_Contact_2   Type: Concentrated force
*Cload, op=NEW
** Name: W_Contact_3   Type: Concentrated force
*Cload, op=NEW
** Name: W_Contact_4   Type: Concentrated force
*Cload, op=NEW
** 
** OUTPUT REQUESTS
** 
*Restart, write, frequency=0
** 
** FIELD OUTPUT: Nodal
** 
*Output, field, frequency=99999
*Node Output
RF, RM, U
** 
** FIELD OUTPUT: Section_P2
** 
*Element Output, elset=FRAME.P2, directions=YES
1, 2, 3, 4, 5, 6, 7, 8, 9, 10, 11
S, SF
** 
** FIELD OUTPUT: Section_P3
** 
*Element Output, elset=FRAME.P3, directions=YES
1, 2, 3, 4, 5, 6, 7, 8, 9, 10, 11
S, SF
** 
** FIELD OUTPUT: Section_P4
** 
*Element Output, elset=FRAME.P4, directions=YES
1, 2, 3, 4, 5, 6, 7, 8, 9, 10, 11
S, SF
** 
** FIELD OUTPUT: Section_P5
** 
*Element Output, elset=FRAME.P5, directions=YES
1, 2, 3, 4, 5, 6, 7, 8, 9, 10, 11
S, SF
** 
** FIELD OUTPUT: Section_P6
** 
*Element Output, elset=FRAME.P6, directions=YES
1, 2, 3, 4, 5, 6, 7
S, SF
** 
** HISTORY OUTPUT: Energy
** 
*Output, history
*Energy Output
ALLSE, ALLWK
*End Step
** ----------------------------------------------------------------
** 
** STEP: D_S
** 
*Step, name=D_S, nlgeom=NO
*Static
1., 1., 1e-05, 1.
** 
** LOADS
** 
** Name: D_07S_Contact_1   Type: Concentrated force
*Cload, op=NEW
** Name: D_07S_Contact_2   Type: Concentrated force
*Cload, op=NEW
** Name: D_07S_Contact_3   Type: Concentrated force
*Cload, op=NEW
** Name: D_07S_Contact_4   Type: Concentrated force
*Cload, op=NEW
** Name: D_07S_SteelGravity   Type: Gravity
*Dload, op=NEW
** Name: D_S_Contact_1   Type: Concentrated force
*Cload, op=NEW
CONTACT_ROW_1, 2, 0.
CONTACT_ROW_1, 3, -860.193
** Name: D_S_Contact_2   Type: Concentrated force
*Cload, op=NEW
CONTACT_ROW_2, 2, 0.
CONTACT_ROW_2, 3, -860.193
** Name: D_S_Contact_3   Type: Concentrated force
*Cload, op=NEW
CONTACT_ROW_3, 2, 0.
CONTACT_ROW_3, 3, -860.193
** Name: D_S_Contact_4   Type: Concentrated force
*Cload, op=NEW
CONTACT_ROW_4, 2, 0.
CONTACT_ROW_4, 3, -860.193
** Name: D_S_SteelGravity   Type: Gravity
*Dload, op=NEW
, GRAV, 9810., 0., 0., -1.
** 
** OUTPUT REQUESTS
** 
*Restart, write, frequency=0
** 
** FIELD OUTPUT: Nodal
** 
*Output, field, frequency=99999
*Node Output
RF, RM, U
** 
** FIELD OUTPUT: Section_P2
** 
*Element Output, elset=FRAME.P2, directions=YES
1, 2, 3, 4, 5, 6, 7, 8, 9, 10, 11
S, SF
** 
** FIELD OUTPUT: Section_P3
** 
*Element Output, elset=FRAME.P3, directions=YES
1, 2, 3, 4, 5, 6, 7, 8, 9, 10, 11
S, SF
** 
** FIELD OUTPUT: Section_P4
** 
*Element Output, elset=FRAME.P4, directions=YES
1, 2, 3, 4, 5, 6, 7, 8, 9, 10, 11
S, SF
** 
** FIELD OUTPUT: Section_P5
** 
*Element Output, elset=FRAME.P5, directions=YES
1, 2, 3, 4, 5, 6, 7, 8, 9, 10, 11
S, SF
** 
** FIELD OUTPUT: Section_P6
** 
*Element Output, elset=FRAME.P6, directions=YES
1, 2, 3, 4, 5, 6, 7
S, SF
** 
** HISTORY OUTPUT: Energy
** 
*Output, history
*Energy Output
ALLSE, ALLWK
*End Step
** ----------------------------------------------------------------
** 
** STEP: D_S_W
** 
*Step, name=D_S_W, nlgeom=NO
*Static
1., 1., 1e-05, 1.
** 
** LOADS
** 
** Name: D_S_Contact_1   Type: Concentrated force
*Cload, op=NEW
** Name: D_S_Contact_2   Type: Concentrated force
*Cload, op=NEW
** Name: D_S_Contact_3   Type: Concentrated force
*Cload, op=NEW
** Name: D_S_Contact_4   Type: Concentrated force
*Cload, op=NEW
** Name: D_S_SteelGravity   Type: Gravity
*Dload, op=NEW
** Name: D_S_W_Contact_1   Type: Concentrated force
*Cload, op=NEW
CONTACT_ROW_1, 2, 35.556
CONTACT_ROW_1, 3, -936.463
** Name: D_S_W_Contact_2   Type: Concentrated force
*Cload, op=NEW
CONTACT_ROW_2, 2, 35.556
CONTACT_ROW_2, 3, -936.463
** Name: D_S_W_Contact_3   Type: Concentrated force
*Cload, op=NEW
CONTACT_ROW_3, 2, 35.556
CONTACT_ROW_3, 3, -936.463
** Name: D_S_W_Contact_4   Type: Concentrated force
*Cload, op=NEW
CONTACT_ROW_4, 2, 35.556
CONTACT_ROW_4, 3, -936.463
** Name: D_S_W_SteelGravity   Type: Gravity
*Dload, op=NEW
, GRAV, 9810., 0., 0., -1.
** 
** OUTPUT REQUESTS
** 
*Restart, write, frequency=0
** 
** FIELD OUTPUT: Nodal
** 
*Output, field, frequency=99999
*Node Output
RF, RM, U
** 
** FIELD OUTPUT: Section_P2
** 
*Element Output, elset=FRAME.P2, directions=YES
1, 2, 3, 4, 5, 6, 7, 8, 9, 10, 11
S, SF
** 
** FIELD OUTPUT: Section_P3
** 
*Element Output, elset=FRAME.P3, directions=YES
1, 2, 3, 4, 5, 6, 7, 8, 9, 10, 11
S, SF
** 
** FIELD OUTPUT: Section_P4
** 
*Element Output, elset=FRAME.P4, directions=YES
1, 2, 3, 4, 5, 6, 7, 8, 9, 10, 11
S, SF
** 
** FIELD OUTPUT: Section_P5
** 
*Element Output, elset=FRAME.P5, directions=YES
1, 2, 3, 4, 5, 6, 7, 8, 9, 10, 11
S, SF
** 
** FIELD OUTPUT: Section_P6
** 
*Element Output, elset=FRAME.P6, directions=YES
1, 2, 3, 4, 5, 6, 7
S, SF
** 
** HISTORY OUTPUT: Energy
** 
*Output, history
*Energy Output
ALLSE, ALLWK
*End Step
** ----------------------------------------------------------------
** 
** STEP: D_S_mW
** 
*Step, name=D_S_mW, nlgeom=NO
*Static
1., 1., 1e-05, 1.
** 
** LOADS
** 
** Name: D_S_W_Contact_1   Type: Concentrated force
*Cload, op=NEW
** Name: D_S_W_Contact_2   Type: Concentrated force
*Cload, op=NEW
** Name: D_S_W_Contact_3   Type: Concentrated force
*Cload, op=NEW
** Name: D_S_W_Contact_4   Type: Concentrated force
*Cload, op=NEW
** Name: D_S_W_SteelGravity   Type: Gravity
*Dload, op=NEW
** Name: D_S_mW_Contact_1   Type: Concentrated force
*Cload, op=NEW
CONTACT_ROW_1, 2, -35.556
CONTACT_ROW_1, 3, -783.922
** Name: D_S_mW_Contact_2   Type: Concentrated force
*Cload, op=NEW
CONTACT_ROW_2, 2, -35.556
CONTACT_ROW_2, 3, -783.922
** Name: D_S_mW_Contact_3   Type: Concentrated force
*Cload, op=NEW
CONTACT_ROW_3, 2, -35.556
CONTACT_ROW_3, 3, -783.922
** Name: D_S_mW_Contact_4   Type: Concentrated force
*Cload, op=NEW
CONTACT_ROW_4, 2, -35.556
CONTACT_ROW_4, 3, -783.922
** Name: D_S_mW_SteelGravity   Type: Gravity
*Dload, op=NEW
, GRAV, 9810., 0., 0., -1.
** 
** OUTPUT REQUESTS
** 
*Restart, write, frequency=0
** 
** FIELD OUTPUT: Nodal
** 
*Output, field, frequency=99999
*Node Output
RF, RM, U
** 
** FIELD OUTPUT: Section_P2
** 
*Element Output, elset=FRAME.P2, directions=YES
1, 2, 3, 4, 5, 6, 7, 8, 9, 10, 11
S, SF
** 
** FIELD OUTPUT: Section_P3
** 
*Element Output, elset=FRAME.P3, directions=YES
1, 2, 3, 4, 5, 6, 7, 8, 9, 10, 11
S, SF
** 
** FIELD OUTPUT: Section_P4
** 
*Element Output, elset=FRAME.P4, directions=YES
1, 2, 3, 4, 5, 6, 7, 8, 9, 10, 11
S, SF
** 
** FIELD OUTPUT: Section_P5
** 
*Element Output, elset=FRAME.P5, directions=YES
1, 2, 3, 4, 5, 6, 7, 8, 9, 10, 11
S, SF
** 
** FIELD OUTPUT: Section_P6
** 
*Element Output, elset=FRAME.P6, directions=YES
1, 2, 3, 4, 5, 6, 7
S, SF
** 
** HISTORY OUTPUT: Energy
** 
*Output, history
*Energy Output
ALLSE, ALLWK
*End Step
** ----------------------------------------------------------------
** 
** STEP: C09D_W
** 
*Step, name=C09D_W, nlgeom=NO
*Static
1., 1., 1e-05, 1.
** 
** LOADS
** 
** Name: C09D_W_Contact_1   Type: Concentrated force
*Cload, op=NEW
CONTACT_ROW_1, 2, 35.556
CONTACT_ROW_1, 3, -190.564
** Name: C09D_W_Contact_2   Type: Concentrated force
*Cload, op=NEW
CONTACT_ROW_2, 2, 35.556
CONTACT_ROW_2, 3, -190.564
** Name: C09D_W_Contact_3   Type: Concentrated force
*Cload, op=NEW
CONTACT_ROW_3, 2, 35.556
CONTACT_ROW_3, 3, -190.564
** Name: C09D_W_Contact_4   Type: Concentrated force
*Cload, op=NEW
CONTACT_ROW_4, 2, 35.556
CONTACT_ROW_4, 3, -190.564
** Name: C09D_W_SteelGravity   Type: Gravity
*Dload, op=NEW
, GRAV, 8829., 0., 0., -1.
** Name: D_S_mW_Contact_1   Type: Concentrated force
*Cload, op=NEW
** Name: D_S_mW_Contact_2   Type: Concentrated force
*Cload, op=NEW
** Name: D_S_mW_Contact_3   Type: Concentrated force
*Cload, op=NEW
** Name: D_S_mW_Contact_4   Type: Concentrated force
*Cload, op=NEW
** Name: D_S_mW_SteelGravity   Type: Gravity
*Dload, op=NEW
** 
** OUTPUT REQUESTS
** 
*Restart, write, frequency=0
** 
** FIELD OUTPUT: Nodal
** 
*Output, field, frequency=99999
*Node Output
RF, RM, U
** 
** FIELD OUTPUT: Section_P2
** 
*Element Output, elset=FRAME.P2, directions=YES
1, 2, 3, 4, 5, 6, 7, 8, 9, 10, 11
S, SF
** 
** FIELD OUTPUT: Section_P3
** 
*Element Output, elset=FRAME.P3, directions=YES
1, 2, 3, 4, 5, 6, 7, 8, 9, 10, 11
S, SF
** 
** FIELD OUTPUT: Section_P4
** 
*Element Output, elset=FRAME.P4, directions=YES
1, 2, 3, 4, 5, 6, 7, 8, 9, 10, 11
S, SF
** 
** FIELD OUTPUT: Section_P5
** 
*Element Output, elset=FRAME.P5, directions=YES
1, 2, 3, 4, 5, 6, 7, 8, 9, 10, 11
S, SF
** 
** FIELD OUTPUT: Section_P6
** 
*Element Output, elset=FRAME.P6, directions=YES
1, 2, 3, 4, 5, 6, 7
S, SF
** 
** HISTORY OUTPUT: Energy
** 
*Output, history
*Energy Output
ALLSE, ALLWK
*End Step
** ----------------------------------------------------------------
** 
** STEP: C09D_mW
** 
*Step, name=C09D_mW, nlgeom=NO
*Static
1., 1., 1e-05, 1.
** 
** LOADS
** 
** Name: C09D_W_Contact_1   Type: Concentrated force
*Cload, op=NEW
** Name: C09D_W_Contact_2   Type: Concentrated force
*Cload, op=NEW
** Name: C09D_W_Contact_3   Type: Concentrated force
*Cload, op=NEW
** Name: C09D_W_Contact_4   Type: Concentrated force
*Cload, op=NEW
** Name: C09D_W_SteelGravity   Type: Gravity
*Dload, op=NEW
** Name: C09D_mW_Contact_1   Type: Concentrated force
*Cload, op=NEW
CONTACT_ROW_1, 2, -35.556
CONTACT_ROW_1, 3, -38.0225
** Name: C09D_mW_Contact_2   Type: Concentrated force
*Cload, op=NEW
CONTACT_ROW_2, 2, -35.556
CONTACT_ROW_2, 3, -38.0225
** Name: C09D_mW_Contact_3   Type: Concentrated force
*Cload, op=NEW
CONTACT_ROW_3, 2, -35.556
CONTACT_ROW_3, 3, -38.0225
** Name: C09D_mW_Contact_4   Type: Concentrated force
*Cload, op=NEW
CONTACT_ROW_4, 2, -35.556
CONTACT_ROW_4, 3, -38.0225
** Name: C09D_mW_SteelGravity   Type: Gravity
*Dload, op=NEW
, GRAV, 8829., 0., 0., -1.
** 
** OUTPUT REQUESTS
** 
*Restart, write, frequency=0
** 
** FIELD OUTPUT: Nodal
** 
*Output, field, frequency=99999
*Node Output
RF, RM, U
** 
** FIELD OUTPUT: Section_P2
** 
*Element Output, elset=FRAME.P2, directions=YES
1, 2, 3, 4, 5, 6, 7, 8, 9, 10, 11
S, SF
** 
** FIELD OUTPUT: Section_P3
** 
*Element Output, elset=FRAME.P3, directions=YES
1, 2, 3, 4, 5, 6, 7, 8, 9, 10, 11
S, SF
** 
** FIELD OUTPUT: Section_P4
** 
*Element Output, elset=FRAME.P4, directions=YES
1, 2, 3, 4, 5, 6, 7, 8, 9, 10, 11
S, SF
** 
** FIELD OUTPUT: Section_P5
** 
*Element Output, elset=FRAME.P5, directions=YES
1, 2, 3, 4, 5, 6, 7, 8, 9, 10, 11
S, SF
** 
** FIELD OUTPUT: Section_P6
** 
*Element Output, elset=FRAME.P6, directions=YES
1, 2, 3, 4, 5, 6, 7
S, SF
** 
** HISTORY OUTPUT: Energy
** 
*Output, history
*Energy Output
ALLSE, ALLWK
*End Step
