*Heading
 Solar support; see assumptions and run metadata; N mm tonne s
** Job name: Solar_002_mesh100 Model name: SolarSupport
** Generated by: Abaqus/CAE 2024
*Preprint, echo=NO, model=NO, history=NO, contact=NO
**
** PARTS
**
*Part, name=SteelFrame
*Node
      1,   17735.5449,   2433.50488,   2186.45581
      2,       18148.,   2433.50488,   2186.45581
      3,       18148.,   2888.94629,   2398.77441
      4,   16910.6367,   2433.50488,   2186.45581
      5,       18148.,   2134.36011,        2047.
      6,   16085.7275,   2433.50488,   2186.45581
      7,   15260.8184,   2433.50488,   2186.45581
      8,   14435.9092,   2433.50488,   2186.45581
      9,       13611.,   2433.50488,   2186.45581
     10,   12786.0908,   2433.50488,   2186.45581
     11,   11961.1816,   2433.50488,   2186.45581
     12,   11136.2725,   2433.50488,   2186.45581
     13,   10311.3633,   2433.50488,   2186.45581
     14,    9486.4541,   2433.50488,   2186.45581
     15,        9074.,   2433.50488,   2186.45581
     16,    8661.5459,   2433.50488,   2186.45581
     17,   7836.63623,   2433.50488,   2186.45581
     18,   7011.72705,   2433.50488,   2186.45581
     19,   6186.81836,   2433.50488,   2186.45581
     20,   5361.90918,   2433.50488,   2186.45581
     21,        4537.,   2433.50488,   2186.45581
     22,   3712.09082,   2433.50488,   2186.45581
     23,   2887.18188,   2433.50488,   2186.45581
     24,   2062.27271,   2433.50488,   2186.45581
     25,   1237.36365,   2433.50488,   2186.45581
     26,   412.454559,   2433.50488,   2186.45581
     27,           0.,   2433.50488,   2186.45581
     28,           0.,   2888.94629,   2398.77441
     29,       18148.,   1522.62158,    1761.8186
     30,       18148.,   611.738403,    1337.1814
     31,       18148.,           0.,        1052.
     32,       18148.,  -299.144806,   912.544128
     33,       18148.,  -754.586365,   700.225464
     34,       13611.,   2888.94629,   2398.77441
     35,       13611.,   2134.36011,        2047.
     36,       13611.,   1522.62158,    1761.8186
     37,       13611.,   611.738403,    1337.1814
     38,       13611.,           0.,        1052.
     39,       13611.,  -299.144806,   912.544128
     40,       13611.,  -754.586365,   700.225464
     41,        9074.,   2888.94629,   2398.77441
     42,        9074.,   2134.36011,        2047.
     43,        9074.,   1522.62158,    1761.8186
     44,        9074.,   611.738403,    1337.1814
     45,        9074.,           0.,        1052.
     46,        9074.,  -299.144806,   912.544128
     47,        9074.,  -754.586365,   700.225464
     48,        4537.,   2888.94629,   2398.77441
     49,        4537.,   2134.36011,        2047.
     50,        4537.,   1522.62158,    1761.8186
     51,        4537.,   611.738403,    1337.1814
     52,        4537.,           0.,        1052.
     53,        4537.,  -299.144806,   912.544128
     54,        4537.,  -754.586365,   700.225464
     55,           0.,   2134.36011,        2047.
     56,           0.,   1522.62158,    1761.8186
     57,           0.,   611.738403,    1337.1814
     58,           0.,           0.,        1052.
     59,           0.,  -299.144806,   912.544128
     60,           0.,  -754.586365,   700.225464
     61,       18148.,   2134.36011,   416.769989
     62,       18148.,   2134.36011,           0.
     63,   17735.5449,   1522.62158,    1761.8186
     64,   16910.6367,   1522.62158,    1761.8186
     65,   16085.7275,   1522.62158,    1761.8186
     66,   15260.8184,   1522.62158,    1761.8186
     67,   14435.9092,   1522.62158,    1761.8186
     68,   12786.0908,   1522.62158,    1761.8186
     69,   11961.1816,   1522.62158,    1761.8186
     70,   11136.2725,   1522.62158,    1761.8186
     71,   10311.3633,   1522.62158,    1761.8186
     72,    9486.4541,   1522.62158,    1761.8186
     73,    8661.5459,   1522.62158,    1761.8186
     74,   7836.63623,   1522.62158,    1761.8186
     75,   7011.72705,   1522.62158,    1761.8186
     76,   6186.81836,   1522.62158,    1761.8186
     77,   5361.90918,   1522.62158,    1761.8186
     78,   3712.09082,   1522.62158,    1761.8186
     79,   2887.18188,   1522.62158,    1761.8186
     80,   2062.27271,   1522.62158,    1761.8186
     81,   1237.36365,   1522.62158,    1761.8186
     82,   412.454559,   1522.62158,    1761.8186
     83,   17735.5449,   611.738403,    1337.1814
     84,   16910.6367,   611.738403,    1337.1814
     85,   16085.7275,   611.738403,    1337.1814
     86,   15260.8184,   611.738403,    1337.1814
     87,   14435.9092,   611.738403,    1337.1814
     88,   12786.0908,   611.738403,    1337.1814
     89,   11961.1816,   611.738403,    1337.1814
     90,   11136.2725,   611.738403,    1337.1814
     91,   10311.3633,   611.738403,    1337.1814
     92,    9486.4541,   611.738403,    1337.1814
     93,    8661.5459,   611.738403,    1337.1814
     94,   7836.63623,   611.738403,    1337.1814
     95,   7011.72705,   611.738403,    1337.1814
     96,   6186.81836,   611.738403,    1337.1814
     97,   5361.90918,   611.738403,    1337.1814
     98,   3712.09082,   611.738403,    1337.1814
     99,   2887.18188,   611.738403,    1337.1814
    100,   2062.27271,   611.738403,    1337.1814
    101,   1237.36365,   611.738403,    1337.1814
    102,   412.454559,   611.738403,    1337.1814
    103,       18148.,           0.,         927.
    104,       18148.,           0.,           0.
    105,   17735.5449,  -299.144806,   912.544128
    106,   16910.6367,  -299.144806,   912.544128
    107,   16085.7275,  -299.144806,   912.544128
    108,   15260.8184,  -299.144806,   912.544128
    109,   14435.9092,  -299.144806,   912.544128
    110,   12786.0908,  -299.144806,   912.544128
    111,   11961.1816,  -299.144806,   912.544128
    112,   11136.2725,  -299.144806,   912.544128
    113,   10311.3633,  -299.144806,   912.544128
    114,    9486.4541,  -299.144806,   912.544128
    115,    8661.5459,  -299.144806,   912.544128
    116,   7836.63623,  -299.144806,   912.544128
    117,   7011.72705,  -299.144806,   912.544128
    118,   6186.81836,  -299.144806,   912.544128
    119,   5361.90918,  -299.144806,   912.544128
    120,   3712.09082,  -299.144806,   912.544128
    121,   2887.18188,  -299.144806,   912.544128
    122,   2062.27271,  -299.144806,   912.544128
    123,   1237.36365,  -299.144806,   912.544128
    124,   412.454559,  -299.144806,   912.544128
    125,       13611.,   2134.36011,   416.769989
    126,       13611.,   2134.36011,           0.
    127,       13611.,           0.,         927.
    128,       13611.,           0.,           0.
    129,        9074.,   2134.36011,   416.769989
    130,        9074.,   2134.36011,           0.
    131,        9074.,           0.,         927.
    132,        9074.,           0.,           0.
    133,        4537.,   2134.36011,   416.769989
    134,        4537.,   2134.36011,           0.
    135,        4537.,           0.,         927.
    136,        4537.,           0.,           0.
    137,           0.,   2134.36011,   416.769989
    138,           0.,   2134.36011,           0.
    139,           0.,           0.,         927.
    140,           0.,           0.,           0.
    141,   17838.6582,   2433.50488,   2186.45581
    142,   17941.7734,   2433.50488,   2186.45581
    143,   18044.8867,   2433.50488,   2186.45581
    144,       18148.,   2524.59302,   2228.91968
    145,       18148.,    2615.6814,    2271.3833
    146,       18148.,   2706.76978,   2313.84717
    147,       18148.,   2797.85815,   2356.31079
    148,     17013.75,   2433.50488,   2186.45581
    149,   17116.8633,   2433.50488,   2186.45581
    150,   17219.9766,   2433.50488,   2186.45581
    151,   17323.0918,   2433.50488,   2186.45581
    152,   17426.2051,   2433.50488,   2186.45581
    153,   17529.3184,   2433.50488,   2186.45581
    154,   17632.4316,   2433.50488,   2186.45581
    155,       18148.,   2234.07495,   2093.48535
    156,       18148.,   2333.78979,    2139.9707
    157,   16188.8408,   2433.50488,   2186.45581
    158,   16291.9541,   2433.50488,   2186.45581
    159,   16395.0684,   2433.50488,   2186.45581
    160,   16498.1816,   2433.50488,   2186.45581
    161,   16601.2949,   2433.50488,   2186.45581
    162,   16704.4082,   2433.50488,   2186.45581
    163,   16807.5234,   2433.50488,   2186.45581
    164,   15363.9316,   2433.50488,   2186.45581
    165,   15467.0459,   2433.50488,   2186.45581
    166,   15570.1592,   2433.50488,   2186.45581
    167,   15673.2725,   2433.50488,   2186.45581
    168,   15776.3867,   2433.50488,   2186.45581
    169,      15879.5,   2433.50488,   2186.45581
    170,   15982.6133,   2433.50488,   2186.45581
    171,   14539.0225,   2433.50488,   2186.45581
    172,   14642.1367,   2433.50488,   2186.45581
    173,     14745.25,   2433.50488,   2186.45581
    174,   14848.3633,   2433.50488,   2186.45581
    175,   14951.4775,   2433.50488,   2186.45581
    176,   15054.5908,   2433.50488,   2186.45581
    177,   15157.7041,   2433.50488,   2186.45581
    178,   13714.1133,   2433.50488,   2186.45581
    179,   13817.2275,   2433.50488,   2186.45581
    180,   13920.3408,   2433.50488,   2186.45581
    181,   14023.4541,   2433.50488,   2186.45581
    182,   14126.5684,   2433.50488,   2186.45581
    183,   14229.6816,   2433.50488,   2186.45581
    184,   14332.7959,   2433.50488,   2186.45581
    185,   12889.2041,   2433.50488,   2186.45581
    186,   12992.3184,   2433.50488,   2186.45581
    187,   13095.4316,   2433.50488,   2186.45581
    188,   13198.5459,   2433.50488,   2186.45581
    189,   13301.6592,   2433.50488,   2186.45581
    190,   13404.7725,   2433.50488,   2186.45581
    191,   13507.8867,   2433.50488,   2186.45581
    192,   12064.2959,   2433.50488,   2186.45581
    193,   12167.4092,   2433.50488,   2186.45581
    194,   12270.5225,   2433.50488,   2186.45581
    195,   12373.6367,   2433.50488,   2186.45581
    196,     12476.75,   2433.50488,   2186.45581
    197,   12579.8633,   2433.50488,   2186.45581
    198,   12682.9775,   2433.50488,   2186.45581
    199,   11239.3867,   2433.50488,   2186.45581
    200,      11342.5,   2433.50488,   2186.45581
    201,   11445.6133,   2433.50488,   2186.45581
    202,   11548.7275,   2433.50488,   2186.45581
    203,   11651.8408,   2433.50488,   2186.45581
    204,   11754.9541,   2433.50488,   2186.45581
    205,   11858.0684,   2433.50488,   2186.45581
    206,   10414.4775,   2433.50488,   2186.45581
    207,   10517.5908,   2433.50488,   2186.45581
    208,   10620.7041,   2433.50488,   2186.45581
    209,   10723.8184,   2433.50488,   2186.45581
    210,   10826.9316,   2433.50488,   2186.45581
    211,   10930.0459,   2433.50488,   2186.45581
    212,   11033.1592,   2433.50488,   2186.45581
    213,   9589.56836,   2433.50488,   2186.45581
    214,   9692.68164,   2433.50488,   2186.45581
    215,    9795.7959,   2433.50488,   2186.45581
    216,   9898.90918,   2433.50488,   2186.45581
    217,   10002.0225,   2433.50488,   2186.45581
    218,   10105.1367,   2433.50488,   2186.45581
    219,     10208.25,   2433.50488,   2186.45581
    220,   9177.11328,   2433.50488,   2186.45581
    221,   9280.22754,   2433.50488,   2186.45581
    222,   9383.34082,   2433.50488,   2186.45581
    223,   8764.65918,   2433.50488,   2186.45581
    224,   8867.77246,   2433.50488,   2186.45581
    225,   8970.88672,   2433.50488,   2186.45581
    226,      7939.75,   2433.50488,   2186.45581
    227,   8042.86377,   2433.50488,   2186.45581
    228,   8145.97705,   2433.50488,   2186.45581
    229,   8249.09082,   2433.50488,   2186.45581
    230,    8352.2041,   2433.50488,   2186.45581
    231,   8455.31836,   2433.50488,   2186.45581
    232,   8558.43164,   2433.50488,   2186.45581
    233,   7114.84082,   2433.50488,   2186.45581
    234,   7217.95459,   2433.50488,   2186.45581
    235,   7321.06836,   2433.50488,   2186.45581
    236,   7424.18164,   2433.50488,   2186.45581
    237,   7527.29541,   2433.50488,   2186.45581
    238,   7630.40918,   2433.50488,   2186.45581
    239,   7733.52295,   2433.50488,   2186.45581
    240,   6289.93164,   2433.50488,   2186.45581
    241,   6393.04541,   2433.50488,   2186.45581
    242,   6496.15918,   2433.50488,   2186.45581
    243,   6599.27295,   2433.50488,   2186.45581
    244,   6702.38623,   2433.50488,   2186.45581
    245,       6805.5,   2433.50488,   2186.45581
    246,   6908.61377,   2433.50488,   2186.45581
    247,   5465.02295,   2433.50488,   2186.45581
    248,   5568.13623,   2433.50488,   2186.45581
    249,      5671.25,   2433.50488,   2186.45581
    250,   5774.36377,   2433.50488,   2186.45581
    251,   5877.47705,   2433.50488,   2186.45581
    252,   5980.59082,   2433.50488,   2186.45581
    253,   6083.70459,   2433.50488,   2186.45581
    254,   4640.11377,   2433.50488,   2186.45581
    255,   4743.22705,   2433.50488,   2186.45581
    256,   4846.34082,   2433.50488,   2186.45581
    257,   4949.45459,   2433.50488,   2186.45581
    258,   5052.56836,   2433.50488,   2186.45581
    259,   5155.68164,   2433.50488,   2186.45581
    260,   5258.79541,   2433.50488,   2186.45581
    261,   3815.20459,   2433.50488,   2186.45581
    262,   3918.31812,   2433.50488,   2186.45581
    263,   4021.43188,   2433.50488,   2186.45581
    264,   4124.54541,   2433.50488,   2186.45581
    265,   4227.65918,   2433.50488,   2186.45581
    266,   4330.77295,   2433.50488,   2186.45581
    267,   4433.88623,   2433.50488,   2186.45581
    268,   2990.29541,   2433.50488,   2186.45581
    269,   3093.40918,   2433.50488,   2186.45581
    270,   3196.52271,   2433.50488,   2186.45581
    271,   3299.63647,   2433.50488,   2186.45581
    272,      3402.75,   2433.50488,   2186.45581
    273,   3505.86353,   2433.50488,   2186.45581
    274,   3608.97729,   2433.50488,   2186.45581
    275,   2165.38647,   2433.50488,   2186.45581
    276,       2268.5,   2433.50488,   2186.45581
    277,   2371.61353,   2433.50488,   2186.45581
    278,   2474.72729,   2433.50488,   2186.45581
    279,   2577.84082,   2433.50488,   2186.45581
    280,   2680.95459,   2433.50488,   2186.45581
    281,   2784.06812,   2433.50488,   2186.45581
    282,   1340.47729,   2433.50488,   2186.45581
    283,   1443.59094,   2433.50488,   2186.45581
    284,   1546.70459,   2433.50488,   2186.45581
    285,   1649.81824,   2433.50488,   2186.45581
    286,   1752.93176,   2433.50488,   2186.45581
    287,   1856.04541,   2433.50488,   2186.45581
    288,   1959.15906,   2433.50488,   2186.45581
    289,   515.568176,   2433.50488,   2186.45581
    290,   618.681824,   2433.50488,   2186.45581
    291,   721.795471,   2433.50488,   2186.45581
    292,   824.909119,   2433.50488,   2186.45581
    293,   928.022705,   2433.50488,   2186.45581
    294,   1031.13635,   2433.50488,   2186.45581
    295,      1134.25,   2433.50488,   2186.45581
    296,    103.11364,   2433.50488,   2186.45581
    297,    206.22728,   2433.50488,   2186.45581
    298,   309.340912,   2433.50488,   2186.45581
    299,           0.,   2524.59302,   2228.91968
    300,           0.,    2615.6814,    2271.3833
    301,           0.,   2706.76978,   2313.84717
    302,           0.,   2797.85815,   2356.31079
    303,       18148.,   1610.01282,   1802.55884
    304,       18148.,   1697.40405,   1843.29907
    305,       18148.,   1784.79517,   1884.03918
    306,       18148.,    1872.1864,   1924.77942
    307,       18148.,   1959.57764,   1965.51965
    308,       18148.,   2046.96875,   2006.25977
    309,       18148.,   702.826721,   1379.64514
    310,       18148.,   793.915039,   1422.10876
    311,       18148.,   885.003357,   1464.57251
    312,       18148.,   976.091675,   1507.03625
    313,       18148.,   1067.18005,       1549.5
    314,       18148.,   1158.26831,   1591.96375
    315,       18148.,   1249.35669,   1634.42749
    316,       18148.,   1340.44495,   1676.89124
    317,       18148.,   1431.53333,   1719.35486
    318,       18148.,   87.3911972,   1092.74023
    319,       18148.,   174.782394,   1133.48035
    320,       18148.,   262.173615,   1174.22058
    321,       18148.,   349.564789,   1214.96082
    322,       18148.,   436.955994,   1255.70093
    323,       18148.,   524.347229,   1296.44116
    324,       18148.,  -199.429871,   959.029419
    325,       18148.,  -99.7149353,   1005.51471
    326,       18148.,  -663.498047,   742.689209
    327,       18148.,  -572.409729,   785.152954
    328,       18148.,  -481.321442,   827.616638
    329,       18148.,  -390.233124,   870.080383
    330,       13611.,   2524.59302,   2228.91968
    331,       13611.,    2615.6814,    2271.3833
    332,       13611.,   2706.76978,   2313.84717
    333,       13611.,   2797.85815,   2356.31079
    334,       13611.,   2234.07495,   2093.48535
    335,       13611.,   2333.78979,    2139.9707
    336,       13611.,   1610.01282,   1802.55884
    337,       13611.,   1697.40405,   1843.29907
    338,       13611.,   1784.79517,   1884.03918
    339,       13611.,    1872.1864,   1924.77942
    340,       13611.,   1959.57764,   1965.51965
    341,       13611.,   2046.96875,   2006.25977
    342,       13611.,   702.826721,   1379.64514
    343,       13611.,   793.915039,   1422.10876
    344,       13611.,   885.003357,   1464.57251
    345,       13611.,   976.091675,   1507.03625
    346,       13611.,   1067.18005,       1549.5
    347,       13611.,   1158.26831,   1591.96375
    348,       13611.,   1249.35669,   1634.42749
    349,       13611.,   1340.44495,   1676.89124
    350,       13611.,   1431.53333,   1719.35486
    351,       13611.,   87.3911972,   1092.74023
    352,       13611.,   174.782394,   1133.48035
    353,       13611.,   262.173615,   1174.22058
    354,       13611.,   349.564789,   1214.96082
    355,       13611.,   436.955994,   1255.70093
    356,       13611.,   524.347229,   1296.44116
    357,       13611.,  -199.429871,   959.029419
    358,       13611.,  -99.7149353,   1005.51471
    359,       13611.,  -663.498047,   742.689209
    360,       13611.,  -572.409729,   785.152954
    361,       13611.,  -481.321442,   827.616638
    362,       13611.,  -390.233124,   870.080383
    363,        9074.,   2524.59302,   2228.91968
    364,        9074.,    2615.6814,    2271.3833
    365,        9074.,   2706.76978,   2313.84717
    366,        9074.,   2797.85815,   2356.31079
    367,        9074.,   2234.07495,   2093.48535
    368,        9074.,   2333.78979,    2139.9707
    369,        9074.,   1610.01282,   1802.55884
    370,        9074.,   1697.40405,   1843.29907
    371,        9074.,   1784.79517,   1884.03918
    372,        9074.,    1872.1864,   1924.77942
    373,        9074.,   1959.57764,   1965.51965
    374,        9074.,   2046.96875,   2006.25977
    375,        9074.,   702.826721,   1379.64514
    376,        9074.,   793.915039,   1422.10876
    377,        9074.,   885.003357,   1464.57251
    378,        9074.,   976.091675,   1507.03625
    379,        9074.,   1067.18005,       1549.5
    380,        9074.,   1158.26831,   1591.96375
    381,        9074.,   1249.35669,   1634.42749
    382,        9074.,   1340.44495,   1676.89124
    383,        9074.,   1431.53333,   1719.35486
    384,        9074.,   87.3911972,   1092.74023
    385,        9074.,   174.782394,   1133.48035
    386,        9074.,   262.173615,   1174.22058
    387,        9074.,   349.564789,   1214.96082
    388,        9074.,   436.955994,   1255.70093
    389,        9074.,   524.347229,   1296.44116
    390,        9074.,  -199.429871,   959.029419
    391,        9074.,  -99.7149353,   1005.51471
    392,        9074.,  -663.498047,   742.689209
    393,        9074.,  -572.409729,   785.152954
    394,        9074.,  -481.321442,   827.616638
    395,        9074.,  -390.233124,   870.080383
    396,        4537.,   2524.59302,   2228.91968
    397,        4537.,    2615.6814,    2271.3833
    398,        4537.,   2706.76978,   2313.84717
    399,        4537.,   2797.85815,   2356.31079
    400,        4537.,   2234.07495,   2093.48535
    401,        4537.,   2333.78979,    2139.9707
    402,        4537.,   1610.01282,   1802.55884
    403,        4537.,   1697.40405,   1843.29907
    404,        4537.,   1784.79517,   1884.03918
    405,        4537.,    1872.1864,   1924.77942
    406,        4537.,   1959.57764,   1965.51965
    407,        4537.,   2046.96875,   2006.25977
    408,        4537.,   702.826721,   1379.64514
    409,        4537.,   793.915039,   1422.10876
    410,        4537.,   885.003357,   1464.57251
    411,        4537.,   976.091675,   1507.03625
    412,        4537.,   1067.18005,       1549.5
    413,        4537.,   1158.26831,   1591.96375
    414,        4537.,   1249.35669,   1634.42749
    415,        4537.,   1340.44495,   1676.89124
    416,        4537.,   1431.53333,   1719.35486
    417,        4537.,   87.3911972,   1092.74023
    418,        4537.,   174.782394,   1133.48035
    419,        4537.,   262.173615,   1174.22058
    420,        4537.,   349.564789,   1214.96082
    421,        4537.,   436.955994,   1255.70093
    422,        4537.,   524.347229,   1296.44116
    423,        4537.,  -199.429871,   959.029419
    424,        4537.,  -99.7149353,   1005.51471
    425,        4537.,  -663.498047,   742.689209
    426,        4537.,  -572.409729,   785.152954
    427,        4537.,  -481.321442,   827.616638
    428,        4537.,  -390.233124,   870.080383
    429,           0.,   2234.07495,   2093.48535
    430,           0.,   2333.78979,    2139.9707
    431,           0.,   1610.01282,   1802.55884
    432,           0.,   1697.40405,   1843.29907
    433,           0.,   1784.79517,   1884.03918
    434,           0.,    1872.1864,   1924.77942
    435,           0.,   1959.57764,   1965.51965
    436,           0.,   2046.96875,   2006.25977
    437,           0.,   702.826721,   1379.64514
    438,           0.,   793.915039,   1422.10876
    439,           0.,   885.003357,   1464.57251
    440,           0.,   976.091675,   1507.03625
    441,           0.,   1067.18005,       1549.5
    442,           0.,   1158.26831,   1591.96375
    443,           0.,   1249.35669,   1634.42749
    444,           0.,   1340.44495,   1676.89124
    445,           0.,   1431.53333,   1719.35486
    446,           0.,   87.3911972,   1092.74023
    447,           0.,   174.782394,   1133.48035
    448,           0.,   262.173615,   1174.22058
    449,           0.,   349.564789,   1214.96082
    450,           0.,   436.955994,   1255.70093
    451,           0.,   524.347229,   1296.44116
    452,           0.,  -199.429871,   959.029419
    453,           0.,  -99.7149353,   1005.51471
    454,           0.,  -663.498047,   742.689209
    455,           0.,  -572.409729,   785.152954
    456,           0.,  -481.321442,   827.616638
    457,           0.,  -390.233124,   870.080383
    458,       18148.,   2134.36011,   518.659363
    459,       18148.,   2134.36011,   620.548767
    460,       18148.,   2134.36011,    722.43811
    461,       18148.,   2134.36011,   824.327515
    462,       18148.,   2134.36011,   926.216858
    463,       18148.,   2134.36011,    1028.1062
    464,       18148.,   2134.36011,   1129.99561
    465,       18148.,   2134.36011,   1231.88501
    466,       18148.,   2134.36011,   1333.77441
    467,       18148.,   2134.36011,    1435.6637
    468,       18148.,   2134.36011,    1537.5531
    469,       18148.,   2134.36011,    1639.4425
    470,       18148.,   2134.36011,   1741.33191
    471,       18148.,   2134.36011,   1843.22119
    472,       18148.,   2134.36011,    1945.1106
    473,       18148.,   2134.36011,   104.192497
    474,       18148.,   2134.36011,   208.384995
    475,       18148.,   2134.36011,   312.577515
    476,   17838.6582,   1522.62158,    1761.8186
    477,   17941.7734,   1522.62158,    1761.8186
    478,   18044.8867,   1522.62158,    1761.8186
    479,     17013.75,   1522.62158,    1761.8186
    480,   17116.8633,   1522.62158,    1761.8186
    481,   17219.9766,   1522.62158,    1761.8186
    482,   17323.0918,   1522.62158,    1761.8186
    483,   17426.2051,   1522.62158,    1761.8186
    484,   17529.3184,   1522.62158,    1761.8186
    485,   17632.4316,   1522.62158,    1761.8186
    486,   16188.8408,   1522.62158,    1761.8186
    487,   16291.9541,   1522.62158,    1761.8186
    488,   16395.0684,   1522.62158,    1761.8186
    489,   16498.1816,   1522.62158,    1761.8186
    490,   16601.2949,   1522.62158,    1761.8186
    491,   16704.4082,   1522.62158,    1761.8186
    492,   16807.5234,   1522.62158,    1761.8186
    493,   15363.9316,   1522.62158,    1761.8186
    494,   15467.0459,   1522.62158,    1761.8186
    495,   15570.1592,   1522.62158,    1761.8186
    496,   15673.2725,   1522.62158,    1761.8186
    497,   15776.3867,   1522.62158,    1761.8186
    498,      15879.5,   1522.62158,    1761.8186
    499,   15982.6133,   1522.62158,    1761.8186
    500,   14539.0225,   1522.62158,    1761.8186
    501,   14642.1367,   1522.62158,    1761.8186
    502,     14745.25,   1522.62158,    1761.8186
    503,   14848.3633,   1522.62158,    1761.8186
    504,   14951.4775,   1522.62158,    1761.8186
    505,   15054.5908,   1522.62158,    1761.8186
    506,   15157.7041,   1522.62158,    1761.8186
    507,   13714.1133,   1522.62158,    1761.8186
    508,   13817.2275,   1522.62158,    1761.8186
    509,   13920.3408,   1522.62158,    1761.8186
    510,   14023.4541,   1522.62158,    1761.8186
    511,   14126.5684,   1522.62158,    1761.8186
    512,   14229.6816,   1522.62158,    1761.8186
    513,   14332.7959,   1522.62158,    1761.8186
    514,   12889.2041,   1522.62158,    1761.8186
    515,   12992.3184,   1522.62158,    1761.8186
    516,   13095.4316,   1522.62158,    1761.8186
    517,   13198.5459,   1522.62158,    1761.8186
    518,   13301.6592,   1522.62158,    1761.8186
    519,   13404.7725,   1522.62158,    1761.8186
    520,   13507.8867,   1522.62158,    1761.8186
    521,   12064.2959,   1522.62158,    1761.8186
    522,   12167.4092,   1522.62158,    1761.8186
    523,   12270.5225,   1522.62158,    1761.8186
    524,   12373.6367,   1522.62158,    1761.8186
    525,     12476.75,   1522.62158,    1761.8186
    526,   12579.8633,   1522.62158,    1761.8186
    527,   12682.9775,   1522.62158,    1761.8186
    528,   11239.3867,   1522.62158,    1761.8186
    529,      11342.5,   1522.62158,    1761.8186
    530,   11445.6133,   1522.62158,    1761.8186
    531,   11548.7275,   1522.62158,    1761.8186
    532,   11651.8408,   1522.62158,    1761.8186
    533,   11754.9541,   1522.62158,    1761.8186
    534,   11858.0684,   1522.62158,    1761.8186
    535,   10414.4775,   1522.62158,    1761.8186
    536,   10517.5908,   1522.62158,    1761.8186
    537,   10620.7041,   1522.62158,    1761.8186
    538,   10723.8184,   1522.62158,    1761.8186
    539,   10826.9316,   1522.62158,    1761.8186
    540,   10930.0459,   1522.62158,    1761.8186
    541,   11033.1592,   1522.62158,    1761.8186
    542,   9589.56836,   1522.62158,    1761.8186
    543,   9692.68164,   1522.62158,    1761.8186
    544,    9795.7959,   1522.62158,    1761.8186
    545,   9898.90918,   1522.62158,    1761.8186
    546,   10002.0225,   1522.62158,    1761.8186
    547,   10105.1367,   1522.62158,    1761.8186
    548,     10208.25,   1522.62158,    1761.8186
    549,   9177.11328,   1522.62158,    1761.8186
    550,   9280.22754,   1522.62158,    1761.8186
    551,   9383.34082,   1522.62158,    1761.8186
    552,   8764.65918,   1522.62158,    1761.8186
    553,   8867.77246,   1522.62158,    1761.8186
    554,   8970.88672,   1522.62158,    1761.8186
    555,      7939.75,   1522.62158,    1761.8186
    556,   8042.86377,   1522.62158,    1761.8186
    557,   8145.97705,   1522.62158,    1761.8186
    558,   8249.09082,   1522.62158,    1761.8186
    559,    8352.2041,   1522.62158,    1761.8186
    560,   8455.31836,   1522.62158,    1761.8186
    561,   8558.43164,   1522.62158,    1761.8186
    562,   7114.84082,   1522.62158,    1761.8186
    563,   7217.95459,   1522.62158,    1761.8186
    564,   7321.06836,   1522.62158,    1761.8186
    565,   7424.18164,   1522.62158,    1761.8186
    566,   7527.29541,   1522.62158,    1761.8186
    567,   7630.40918,   1522.62158,    1761.8186
    568,   7733.52295,   1522.62158,    1761.8186
    569,   6289.93164,   1522.62158,    1761.8186
    570,   6393.04541,   1522.62158,    1761.8186
    571,   6496.15918,   1522.62158,    1761.8186
    572,   6599.27295,   1522.62158,    1761.8186
    573,   6702.38623,   1522.62158,    1761.8186
    574,       6805.5,   1522.62158,    1761.8186
    575,   6908.61377,   1522.62158,    1761.8186
    576,   5465.02295,   1522.62158,    1761.8186
    577,   5568.13623,   1522.62158,    1761.8186
    578,      5671.25,   1522.62158,    1761.8186
    579,   5774.36377,   1522.62158,    1761.8186
    580,   5877.47705,   1522.62158,    1761.8186
    581,   5980.59082,   1522.62158,    1761.8186
    582,   6083.70459,   1522.62158,    1761.8186
    583,   4640.11377,   1522.62158,    1761.8186
    584,   4743.22705,   1522.62158,    1761.8186
    585,   4846.34082,   1522.62158,    1761.8186
    586,   4949.45459,   1522.62158,    1761.8186
    587,   5052.56836,   1522.62158,    1761.8186
    588,   5155.68164,   1522.62158,    1761.8186
    589,   5258.79541,   1522.62158,    1761.8186
    590,   3815.20459,   1522.62158,    1761.8186
    591,   3918.31812,   1522.62158,    1761.8186
    592,   4021.43188,   1522.62158,    1761.8186
    593,   4124.54541,   1522.62158,    1761.8186
    594,   4227.65918,   1522.62158,    1761.8186
    595,   4330.77295,   1522.62158,    1761.8186
    596,   4433.88623,   1522.62158,    1761.8186
    597,   2990.29541,   1522.62158,    1761.8186
    598,   3093.40918,   1522.62158,    1761.8186
    599,   3196.52271,   1522.62158,    1761.8186
    600,   3299.63647,   1522.62158,    1761.8186
    601,      3402.75,   1522.62158,    1761.8186
    602,   3505.86353,   1522.62158,    1761.8186
    603,   3608.97729,   1522.62158,    1761.8186
    604,   2165.38647,   1522.62158,    1761.8186
    605,       2268.5,   1522.62158,    1761.8186
    606,   2371.61353,   1522.62158,    1761.8186
    607,   2474.72729,   1522.62158,    1761.8186
    608,   2577.84082,   1522.62158,    1761.8186
    609,   2680.95459,   1522.62158,    1761.8186
    610,   2784.06812,   1522.62158,    1761.8186
    611,   1340.47729,   1522.62158,    1761.8186
    612,   1443.59094,   1522.62158,    1761.8186
    613,   1546.70459,   1522.62158,    1761.8186
    614,   1649.81824,   1522.62158,    1761.8186
    615,   1752.93176,   1522.62158,    1761.8186
    616,   1856.04541,   1522.62158,    1761.8186
    617,   1959.15906,   1522.62158,    1761.8186
    618,   515.568176,   1522.62158,    1761.8186
    619,   618.681824,   1522.62158,    1761.8186
    620,   721.795471,   1522.62158,    1761.8186
    621,   824.909119,   1522.62158,    1761.8186
    622,   928.022705,   1522.62158,    1761.8186
    623,   1031.13635,   1522.62158,    1761.8186
    624,      1134.25,   1522.62158,    1761.8186
    625,    103.11364,   1522.62158,    1761.8186
    626,    206.22728,   1522.62158,    1761.8186
    627,   309.340912,   1522.62158,    1761.8186
    628,   17838.6582,   611.738403,    1337.1814
    629,   17941.7734,   611.738403,    1337.1814
    630,   18044.8867,   611.738403,    1337.1814
    631,     17013.75,   611.738403,    1337.1814
    632,   17116.8633,   611.738403,    1337.1814
    633,   17219.9766,   611.738403,    1337.1814
    634,   17323.0918,   611.738403,    1337.1814
    635,   17426.2051,   611.738403,    1337.1814
    636,   17529.3184,   611.738403,    1337.1814
    637,   17632.4316,   611.738403,    1337.1814
    638,   16188.8408,   611.738403,    1337.1814
    639,   16291.9541,   611.738403,    1337.1814
    640,   16395.0684,   611.738403,    1337.1814
    641,   16498.1816,   611.738403,    1337.1814
    642,   16601.2949,   611.738403,    1337.1814
    643,   16704.4082,   611.738403,    1337.1814
    644,   16807.5234,   611.738403,    1337.1814
    645,   15363.9316,   611.738403,    1337.1814
    646,   15467.0459,   611.738403,    1337.1814
    647,   15570.1592,   611.738403,    1337.1814
    648,   15673.2725,   611.738403,    1337.1814
    649,   15776.3867,   611.738403,    1337.1814
    650,      15879.5,   611.738403,    1337.1814
    651,   15982.6133,   611.738403,    1337.1814
    652,   14539.0225,   611.738403,    1337.1814
    653,   14642.1367,   611.738403,    1337.1814
    654,     14745.25,   611.738403,    1337.1814
    655,   14848.3633,   611.738403,    1337.1814
    656,   14951.4775,   611.738403,    1337.1814
    657,   15054.5908,   611.738403,    1337.1814
    658,   15157.7041,   611.738403,    1337.1814
    659,   13714.1133,   611.738403,    1337.1814
    660,   13817.2275,   611.738403,    1337.1814
    661,   13920.3408,   611.738403,    1337.1814
    662,   14023.4541,   611.738403,    1337.1814
    663,   14126.5684,   611.738403,    1337.1814
    664,   14229.6816,   611.738403,    1337.1814
    665,   14332.7959,   611.738403,    1337.1814
    666,   12889.2041,   611.738403,    1337.1814
    667,   12992.3184,   611.738403,    1337.1814
    668,   13095.4316,   611.738403,    1337.1814
    669,   13198.5459,   611.738403,    1337.1814
    670,   13301.6592,   611.738403,    1337.1814
    671,   13404.7725,   611.738403,    1337.1814
    672,   13507.8867,   611.738403,    1337.1814
    673,   12064.2959,   611.738403,    1337.1814
    674,   12167.4092,   611.738403,    1337.1814
    675,   12270.5225,   611.738403,    1337.1814
    676,   12373.6367,   611.738403,    1337.1814
    677,     12476.75,   611.738403,    1337.1814
    678,   12579.8633,   611.738403,    1337.1814
    679,   12682.9775,   611.738403,    1337.1814
    680,   11239.3867,   611.738403,    1337.1814
    681,      11342.5,   611.738403,    1337.1814
    682,   11445.6133,   611.738403,    1337.1814
    683,   11548.7275,   611.738403,    1337.1814
    684,   11651.8408,   611.738403,    1337.1814
    685,   11754.9541,   611.738403,    1337.1814
    686,   11858.0684,   611.738403,    1337.1814
    687,   10414.4775,   611.738403,    1337.1814
    688,   10517.5908,   611.738403,    1337.1814
    689,   10620.7041,   611.738403,    1337.1814
    690,   10723.8184,   611.738403,    1337.1814
    691,   10826.9316,   611.738403,    1337.1814
    692,   10930.0459,   611.738403,    1337.1814
    693,   11033.1592,   611.738403,    1337.1814
    694,   9589.56836,   611.738403,    1337.1814
    695,   9692.68164,   611.738403,    1337.1814
    696,    9795.7959,   611.738403,    1337.1814
    697,   9898.90918,   611.738403,    1337.1814
    698,   10002.0225,   611.738403,    1337.1814
    699,   10105.1367,   611.738403,    1337.1814
    700,     10208.25,   611.738403,    1337.1814
    701,   9177.11328,   611.738403,    1337.1814
    702,   9280.22754,   611.738403,    1337.1814
    703,   9383.34082,   611.738403,    1337.1814
    704,   8764.65918,   611.738403,    1337.1814
    705,   8867.77246,   611.738403,    1337.1814
    706,   8970.88672,   611.738403,    1337.1814
    707,      7939.75,   611.738403,    1337.1814
    708,   8042.86377,   611.738403,    1337.1814
    709,   8145.97705,   611.738403,    1337.1814
    710,   8249.09082,   611.738403,    1337.1814
    711,    8352.2041,   611.738403,    1337.1814
    712,   8455.31836,   611.738403,    1337.1814
    713,   8558.43164,   611.738403,    1337.1814
    714,   7114.84082,   611.738403,    1337.1814
    715,   7217.95459,   611.738403,    1337.1814
    716,   7321.06836,   611.738403,    1337.1814
    717,   7424.18164,   611.738403,    1337.1814
    718,   7527.29541,   611.738403,    1337.1814
    719,   7630.40918,   611.738403,    1337.1814
    720,   7733.52295,   611.738403,    1337.1814
    721,   6289.93164,   611.738403,    1337.1814
    722,   6393.04541,   611.738403,    1337.1814
    723,   6496.15918,   611.738403,    1337.1814
    724,   6599.27295,   611.738403,    1337.1814
    725,   6702.38623,   611.738403,    1337.1814
    726,       6805.5,   611.738403,    1337.1814
    727,   6908.61377,   611.738403,    1337.1814
    728,   5465.02295,   611.738403,    1337.1814
    729,   5568.13623,   611.738403,    1337.1814
    730,      5671.25,   611.738403,    1337.1814
    731,   5774.36377,   611.738403,    1337.1814
    732,   5877.47705,   611.738403,    1337.1814
    733,   5980.59082,   611.738403,    1337.1814
    734,   6083.70459,   611.738403,    1337.1814
    735,   4640.11377,   611.738403,    1337.1814
    736,   4743.22705,   611.738403,    1337.1814
    737,   4846.34082,   611.738403,    1337.1814
    738,   4949.45459,   611.738403,    1337.1814
    739,   5052.56836,   611.738403,    1337.1814
    740,   5155.68164,   611.738403,    1337.1814
    741,   5258.79541,   611.738403,    1337.1814
    742,   3815.20459,   611.738403,    1337.1814
    743,   3918.31812,   611.738403,    1337.1814
    744,   4021.43188,   611.738403,    1337.1814
    745,   4124.54541,   611.738403,    1337.1814
    746,   4227.65918,   611.738403,    1337.1814
    747,   4330.77295,   611.738403,    1337.1814
    748,   4433.88623,   611.738403,    1337.1814
    749,   2990.29541,   611.738403,    1337.1814
    750,   3093.40918,   611.738403,    1337.1814
    751,   3196.52271,   611.738403,    1337.1814
    752,   3299.63647,   611.738403,    1337.1814
    753,      3402.75,   611.738403,    1337.1814
    754,   3505.86353,   611.738403,    1337.1814
    755,   3608.97729,   611.738403,    1337.1814
    756,   2165.38647,   611.738403,    1337.1814
    757,       2268.5,   611.738403,    1337.1814
    758,   2371.61353,   611.738403,    1337.1814
    759,   2474.72729,   611.738403,    1337.1814
    760,   2577.84082,   611.738403,    1337.1814
    761,   2680.95459,   611.738403,    1337.1814
    762,   2784.06812,   611.738403,    1337.1814
    763,   1340.47729,   611.738403,    1337.1814
    764,   1443.59094,   611.738403,    1337.1814
    765,   1546.70459,   611.738403,    1337.1814
    766,   1649.81824,   611.738403,    1337.1814
    767,   1752.93176,   611.738403,    1337.1814
    768,   1856.04541,   611.738403,    1337.1814
    769,   1959.15906,   611.738403,    1337.1814
    770,   515.568176,   611.738403,    1337.1814
    771,   618.681824,   611.738403,    1337.1814
    772,   721.795471,   611.738403,    1337.1814
    773,   824.909119,   611.738403,    1337.1814
    774,   928.022705,   611.738403,    1337.1814
    775,   1031.13635,   611.738403,    1337.1814
    776,      1134.25,   611.738403,    1337.1814
    777,    103.11364,   611.738403,    1337.1814
    778,    206.22728,   611.738403,    1337.1814
    779,   309.340912,   611.738403,    1337.1814
    780,       18148.,           0.,         103.
    781,       18148.,           0.,         206.
    782,       18148.,           0.,         309.
    783,       18148.,           0.,         412.
    784,       18148.,           0.,         515.
    785,       18148.,           0.,         618.
    786,       18148.,           0.,         721.
    787,       18148.,           0.,         824.
    788,   17838.6582,  -299.144806,   912.544128
    789,   17941.7734,  -299.144806,   912.544128
    790,   18044.8867,  -299.144806,   912.544128
    791,     17013.75,  -299.144806,   912.544128
    792,   17116.8633,  -299.144806,   912.544128
    793,   17219.9766,  -299.144806,   912.544128
    794,   17323.0918,  -299.144806,   912.544128
    795,   17426.2051,  -299.144806,   912.544128
    796,   17529.3184,  -299.144806,   912.544128
    797,   17632.4316,  -299.144806,   912.544128
    798,   16188.8408,  -299.144806,   912.544128
    799,   16291.9541,  -299.144806,   912.544128
    800,   16395.0684,  -299.144806,   912.544128
    801,   16498.1816,  -299.144806,   912.544128
    802,   16601.2949,  -299.144806,   912.544128
    803,   16704.4082,  -299.144806,   912.544128
    804,   16807.5234,  -299.144806,   912.544128
    805,   15363.9316,  -299.144806,   912.544128
    806,   15467.0459,  -299.144806,   912.544128
    807,   15570.1592,  -299.144806,   912.544128
    808,   15673.2725,  -299.144806,   912.544128
    809,   15776.3867,  -299.144806,   912.544128
    810,      15879.5,  -299.144806,   912.544128
    811,   15982.6133,  -299.144806,   912.544128
    812,   14539.0225,  -299.144806,   912.544128
    813,   14642.1367,  -299.144806,   912.544128
    814,     14745.25,  -299.144806,   912.544128
    815,   14848.3633,  -299.144806,   912.544128
    816,   14951.4775,  -299.144806,   912.544128
    817,   15054.5908,  -299.144806,   912.544128
    818,   15157.7041,  -299.144806,   912.544128
    819,   13714.1133,  -299.144806,   912.544128
    820,   13817.2275,  -299.144806,   912.544128
    821,   13920.3408,  -299.144806,   912.544128
    822,   14023.4541,  -299.144806,   912.544128
    823,   14126.5684,  -299.144806,   912.544128
    824,   14229.6816,  -299.144806,   912.544128
    825,   14332.7959,  -299.144806,   912.544128
    826,   12889.2041,  -299.144806,   912.544128
    827,   12992.3184,  -299.144806,   912.544128
    828,   13095.4316,  -299.144806,   912.544128
    829,   13198.5459,  -299.144806,   912.544128
    830,   13301.6592,  -299.144806,   912.544128
    831,   13404.7725,  -299.144806,   912.544128
    832,   13507.8867,  -299.144806,   912.544128
    833,   12064.2959,  -299.144806,   912.544128
    834,   12167.4092,  -299.144806,   912.544128
    835,   12270.5225,  -299.144806,   912.544128
    836,   12373.6367,  -299.144806,   912.544128
    837,     12476.75,  -299.144806,   912.544128
    838,   12579.8633,  -299.144806,   912.544128
    839,   12682.9775,  -299.144806,   912.544128
    840,   11239.3867,  -299.144806,   912.544128
    841,      11342.5,  -299.144806,   912.544128
    842,   11445.6133,  -299.144806,   912.544128
    843,   11548.7275,  -299.144806,   912.544128
    844,   11651.8408,  -299.144806,   912.544128
    845,   11754.9541,  -299.144806,   912.544128
    846,   11858.0684,  -299.144806,   912.544128
    847,   10414.4775,  -299.144806,   912.544128
    848,   10517.5908,  -299.144806,   912.544128
    849,   10620.7041,  -299.144806,   912.544128
    850,   10723.8184,  -299.144806,   912.544128
    851,   10826.9316,  -299.144806,   912.544128
    852,   10930.0459,  -299.144806,   912.544128
    853,   11033.1592,  -299.144806,   912.544128
    854,   9589.56836,  -299.144806,   912.544128
    855,   9692.68164,  -299.144806,   912.544128
    856,    9795.7959,  -299.144806,   912.544128
    857,   9898.90918,  -299.144806,   912.544128
    858,   10002.0225,  -299.144806,   912.544128
    859,   10105.1367,  -299.144806,   912.544128
    860,     10208.25,  -299.144806,   912.544128
    861,   9177.11328,  -299.144806,   912.544128
    862,   9280.22754,  -299.144806,   912.544128
    863,   9383.34082,  -299.144806,   912.544128
    864,   8764.65918,  -299.144806,   912.544128
    865,   8867.77246,  -299.144806,   912.544128
    866,   8970.88672,  -299.144806,   912.544128
    867,      7939.75,  -299.144806,   912.544128
    868,   8042.86377,  -299.144806,   912.544128
    869,   8145.97705,  -299.144806,   912.544128
    870,   8249.09082,  -299.144806,   912.544128
    871,    8352.2041,  -299.144806,   912.544128
    872,   8455.31836,  -299.144806,   912.544128
    873,   8558.43164,  -299.144806,   912.544128
    874,   7114.84082,  -299.144806,   912.544128
    875,   7217.95459,  -299.144806,   912.544128
    876,   7321.06836,  -299.144806,   912.544128
    877,   7424.18164,  -299.144806,   912.544128
    878,   7527.29541,  -299.144806,   912.544128
    879,   7630.40918,  -299.144806,   912.544128
    880,   7733.52295,  -299.144806,   912.544128
    881,   6289.93164,  -299.144806,   912.544128
    882,   6393.04541,  -299.144806,   912.544128
    883,   6496.15918,  -299.144806,   912.544128
    884,   6599.27295,  -299.144806,   912.544128
    885,   6702.38623,  -299.144806,   912.544128
    886,       6805.5,  -299.144806,   912.544128
    887,   6908.61377,  -299.144806,   912.544128
    888,   5465.02295,  -299.144806,   912.544128
    889,   5568.13623,  -299.144806,   912.544128
    890,      5671.25,  -299.144806,   912.544128
    891,   5774.36377,  -299.144806,   912.544128
    892,   5877.47705,  -299.144806,   912.544128
    893,   5980.59082,  -299.144806,   912.544128
    894,   6083.70459,  -299.144806,   912.544128
    895,   4640.11377,  -299.144806,   912.544128
    896,   4743.22705,  -299.144806,   912.544128
    897,   4846.34082,  -299.144806,   912.544128
    898,   4949.45459,  -299.144806,   912.544128
    899,   5052.56836,  -299.144806,   912.544128
    900,   5155.68164,  -299.144806,   912.544128
    901,   5258.79541,  -299.144806,   912.544128
    902,   3815.20459,  -299.144806,   912.544128
    903,   3918.31812,  -299.144806,   912.544128
    904,   4021.43188,  -299.144806,   912.544128
    905,   4124.54541,  -299.144806,   912.544128
    906,   4227.65918,  -299.144806,   912.544128
    907,   4330.77295,  -299.144806,   912.544128
    908,   4433.88623,  -299.144806,   912.544128
    909,   2990.29541,  -299.144806,   912.544128
    910,   3093.40918,  -299.144806,   912.544128
    911,   3196.52271,  -299.144806,   912.544128
    912,   3299.63647,  -299.144806,   912.544128
    913,      3402.75,  -299.144806,   912.544128
    914,   3505.86353,  -299.144806,   912.544128
    915,   3608.97729,  -299.144806,   912.544128
    916,   2165.38647,  -299.144806,   912.544128
    917,       2268.5,  -299.144806,   912.544128
    918,   2371.61353,  -299.144806,   912.544128
    919,   2474.72729,  -299.144806,   912.544128
    920,   2577.84082,  -299.144806,   912.544128
    921,   2680.95459,  -299.144806,   912.544128
    922,   2784.06812,  -299.144806,   912.544128
    923,   1340.47729,  -299.144806,   912.544128
    924,   1443.59094,  -299.144806,   912.544128
    925,   1546.70459,  -299.144806,   912.544128
    926,   1649.81824,  -299.144806,   912.544128
    927,   1752.93176,  -299.144806,   912.544128
    928,   1856.04541,  -299.144806,   912.544128
    929,   1959.15906,  -299.144806,   912.544128
    930,   515.568176,  -299.144806,   912.544128
    931,   618.681824,  -299.144806,   912.544128
    932,   721.795471,  -299.144806,   912.544128
    933,   824.909119,  -299.144806,   912.544128
    934,   928.022705,  -299.144806,   912.544128
    935,   1031.13635,  -299.144806,   912.544128
    936,      1134.25,  -299.144806,   912.544128
    937,    103.11364,  -299.144806,   912.544128
    938,    206.22728,  -299.144806,   912.544128
    939,   309.340912,  -299.144806,   912.544128
    940,       13611.,   2134.36011,   518.659363
    941,       13611.,   2134.36011,   620.548767
    942,       13611.,   2134.36011,    722.43811
    943,       13611.,   2134.36011,   824.327515
    944,       13611.,   2134.36011,   926.216858
    945,       13611.,   2134.36011,    1028.1062
    946,       13611.,   2134.36011,   1129.99561
    947,       13611.,   2134.36011,   1231.88501
    948,       13611.,   2134.36011,   1333.77441
    949,       13611.,   2134.36011,    1435.6637
    950,       13611.,   2134.36011,    1537.5531
    951,       13611.,   2134.36011,    1639.4425
    952,       13611.,   2134.36011,   1741.33191
    953,       13611.,   2134.36011,   1843.22119
    954,       13611.,   2134.36011,    1945.1106
    955,       13611.,   2134.36011,   104.192497
    956,       13611.,   2134.36011,   208.384995
    957,       13611.,   2134.36011,   312.577515
    958,       13611.,           0.,         103.
    959,       13611.,           0.,         206.
    960,       13611.,           0.,         309.
    961,       13611.,           0.,         412.
    962,       13611.,           0.,         515.
    963,       13611.,           0.,         618.
    964,       13611.,           0.,         721.
    965,       13611.,           0.,         824.
    966,        9074.,   2134.36011,   518.659363
    967,        9074.,   2134.36011,   620.548767
    968,        9074.,   2134.36011,    722.43811
    969,        9074.,   2134.36011,   824.327515
    970,        9074.,   2134.36011,   926.216858
    971,        9074.,   2134.36011,    1028.1062
    972,        9074.,   2134.36011,   1129.99561
    973,        9074.,   2134.36011,   1231.88501
    974,        9074.,   2134.36011,   1333.77441
    975,        9074.,   2134.36011,    1435.6637
    976,        9074.,   2134.36011,    1537.5531
    977,        9074.,   2134.36011,    1639.4425
    978,        9074.,   2134.36011,   1741.33191
    979,        9074.,   2134.36011,   1843.22119
    980,        9074.,   2134.36011,    1945.1106
    981,        9074.,   2134.36011,   104.192497
    982,        9074.,   2134.36011,   208.384995
    983,        9074.,   2134.36011,   312.577515
    984,        9074.,           0.,         103.
    985,        9074.,           0.,         206.
    986,        9074.,           0.,         309.
    987,        9074.,           0.,         412.
    988,        9074.,           0.,         515.
    989,        9074.,           0.,         618.
    990,        9074.,           0.,         721.
    991,        9074.,           0.,         824.
    992,        4537.,   2134.36011,   518.659363
    993,        4537.,   2134.36011,   620.548767
    994,        4537.,   2134.36011,    722.43811
    995,        4537.,   2134.36011,   824.327515
    996,        4537.,   2134.36011,   926.216858
    997,        4537.,   2134.36011,    1028.1062
    998,        4537.,   2134.36011,   1129.99561
    999,        4537.,   2134.36011,   1231.88501
   1000,        4537.,   2134.36011,   1333.77441
   1001,        4537.,   2134.36011,    1435.6637
   1002,        4537.,   2134.36011,    1537.5531
   1003,        4537.,   2134.36011,    1639.4425
   1004,        4537.,   2134.36011,   1741.33191
   1005,        4537.,   2134.36011,   1843.22119
   1006,        4537.,   2134.36011,    1945.1106
   1007,        4537.,   2134.36011,   104.192497
   1008,        4537.,   2134.36011,   208.384995
   1009,        4537.,   2134.36011,   312.577515
   1010,        4537.,           0.,         103.
   1011,        4537.,           0.,         206.
   1012,        4537.,           0.,         309.
   1013,        4537.,           0.,         412.
   1014,        4537.,           0.,         515.
   1015,        4537.,           0.,         618.
   1016,        4537.,           0.,         721.
   1017,        4537.,           0.,         824.
   1018,           0.,   2134.36011,   518.659363
   1019,           0.,   2134.36011,   620.548767
   1020,           0.,   2134.36011,    722.43811
   1021,           0.,   2134.36011,   824.327515
   1022,           0.,   2134.36011,   926.216858
   1023,           0.,   2134.36011,    1028.1062
   1024,           0.,   2134.36011,   1129.99561
   1025,           0.,   2134.36011,   1231.88501
   1026,           0.,   2134.36011,   1333.77441
   1027,           0.,   2134.36011,    1435.6637
   1028,           0.,   2134.36011,    1537.5531
   1029,           0.,   2134.36011,    1639.4425
   1030,           0.,   2134.36011,   1741.33191
   1031,           0.,   2134.36011,   1843.22119
   1032,           0.,   2134.36011,    1945.1106
   1033,           0.,   2134.36011,   104.192497
   1034,           0.,   2134.36011,   208.384995
   1035,           0.,   2134.36011,   312.577515
   1036,           0.,           0.,         103.
   1037,           0.,           0.,         206.
   1038,           0.,           0.,         309.
   1039,           0.,           0.,         412.
   1040,           0.,           0.,         515.
   1041,           0.,           0.,         618.
   1042,           0.,           0.,         721.
   1043,           0.,           0.,         824.
   1044,       18148.,   97.0163651,   903.807739
   1045,       18148.,    194.03273,   880.615479
   1046,       18148.,   291.049103,   857.423157
   1047,       18148.,    388.06546,   834.230896
   1048,       18148.,   485.081818,   811.038635
   1049,       18148.,   582.098206,   787.846375
   1050,       18148.,   679.114563,   764.654114
   1051,       18148.,    776.13092,   741.461792
   1052,       18148.,   873.147278,   718.269531
   1053,       18148.,   970.163635,   695.077271
   1054,       18148.,   1067.18005,    671.88501
   1055,       18148.,   1164.19641,   648.692749
   1056,       18148.,   1261.21277,   625.500427
   1057,       18148.,   1358.22913,   602.308167
   1058,       18148.,   1455.24548,   579.115906
   1059,       18148.,   1552.26184,   555.923645
   1060,       18148.,    1649.2782,   532.731384
   1061,       18148.,   1746.29456,   509.539093
   1062,       18148.,   1843.31091,   486.346832
   1063,       18148.,   1940.32727,   463.154541
   1064,       18148.,   2037.34363,    439.96228
   1065,       13611.,   97.0163651,   903.807739
   1066,       13611.,    194.03273,   880.615479
   1067,       13611.,   291.049103,   857.423157
   1068,       13611.,    388.06546,   834.230896
   1069,       13611.,   485.081818,   811.038635
   1070,       13611.,   582.098206,   787.846375
   1071,       13611.,   679.114563,   764.654114
   1072,       13611.,    776.13092,   741.461792
   1073,       13611.,   873.147278,   718.269531
   1074,       13611.,   970.163635,   695.077271
   1075,       13611.,   1067.18005,    671.88501
   1076,       13611.,   1164.19641,   648.692749
   1077,       13611.,   1261.21277,   625.500427
   1078,       13611.,   1358.22913,   602.308167
   1079,       13611.,   1455.24548,   579.115906
   1080,       13611.,   1552.26184,   555.923645
   1081,       13611.,    1649.2782,   532.731384
   1082,       13611.,   1746.29456,   509.539093
   1083,       13611.,   1843.31091,   486.346832
   1084,       13611.,   1940.32727,   463.154541
   1085,       13611.,   2037.34363,    439.96228
   1086,        9074.,   97.0163651,   903.807739
   1087,        9074.,    194.03273,   880.615479
   1088,        9074.,   291.049103,   857.423157
   1089,        9074.,    388.06546,   834.230896
   1090,        9074.,   485.081818,   811.038635
   1091,        9074.,   582.098206,   787.846375
   1092,        9074.,   679.114563,   764.654114
   1093,        9074.,    776.13092,   741.461792
   1094,        9074.,   873.147278,   718.269531
   1095,        9074.,   970.163635,   695.077271
   1096,        9074.,   1067.18005,    671.88501
   1097,        9074.,   1164.19641,   648.692749
   1098,        9074.,   1261.21277,   625.500427
   1099,        9074.,   1358.22913,   602.308167
   1100,        9074.,   1455.24548,   579.115906
   1101,        9074.,   1552.26184,   555.923645
   1102,        9074.,    1649.2782,   532.731384
   1103,        9074.,   1746.29456,   509.539093
   1104,        9074.,   1843.31091,   486.346832
   1105,        9074.,   1940.32727,   463.154541
   1106,        9074.,   2037.34363,    439.96228
   1107,        4537.,   97.0163651,   903.807739
   1108,        4537.,    194.03273,   880.615479
   1109,        4537.,   291.049103,   857.423157
   1110,        4537.,    388.06546,   834.230896
   1111,        4537.,   485.081818,   811.038635
   1112,        4537.,   582.098206,   787.846375
   1113,        4537.,   679.114563,   764.654114
   1114,        4537.,    776.13092,   741.461792
   1115,        4537.,   873.147278,   718.269531
   1116,        4537.,   970.163635,   695.077271
   1117,        4537.,   1067.18005,    671.88501
   1118,        4537.,   1164.19641,   648.692749
   1119,        4537.,   1261.21277,   625.500427
   1120,        4537.,   1358.22913,   602.308167
   1121,        4537.,   1455.24548,   579.115906
   1122,        4537.,   1552.26184,   555.923645
   1123,        4537.,    1649.2782,   532.731384
   1124,        4537.,   1746.29456,   509.539093
   1125,        4537.,   1843.31091,   486.346832
   1126,        4537.,   1940.32727,   463.154541
   1127,        4537.,   2037.34363,    439.96228
   1128,           0.,   97.0163651,   903.807739
   1129,           0.,    194.03273,   880.615479
   1130,           0.,   291.049103,   857.423157
   1131,           0.,    388.06546,   834.230896
   1132,           0.,   485.081818,   811.038635
   1133,           0.,   582.098206,   787.846375
   1134,           0.,   679.114563,   764.654114
   1135,           0.,    776.13092,   741.461792
   1136,           0.,   873.147278,   718.269531
   1137,           0.,   970.163635,   695.077271
   1138,           0.,   1067.18005,    671.88501
   1139,           0.,   1164.19641,   648.692749
   1140,           0.,   1261.21277,   625.500427
   1141,           0.,   1358.22913,   602.308167
   1142,           0.,   1455.24548,   579.115906
   1143,           0.,   1552.26184,   555.923645
   1144,           0.,    1649.2782,   532.731384
   1145,           0.,   1746.29456,   509.539093
   1146,           0.,   1843.31091,   486.346832
   1147,           0.,   1940.32727,   463.154541
   1148,           0.,   2037.34363,    439.96228
*Element, type=B31
1,   1, 141
2, 141, 142
3, 142, 143
4, 143,   2
 5,   2, 144
 6, 144, 145
 7, 145, 146
 8, 146, 147
 9, 147,   3
10,   4, 148
11, 148, 149
12, 149, 150
13, 150, 151
14, 151, 152
15, 152, 153
16, 153, 154
17, 154,   1
18,   5, 155
19, 155, 156
20, 156,   2
21,   6, 157
22, 157, 158
23, 158, 159
24, 159, 160
25, 160, 161
26, 161, 162
27, 162, 163
28, 163,   4
29,   7, 164
30, 164, 165
31, 165, 166
32, 166, 167
33, 167, 168
34, 168, 169
35, 169, 170
36, 170,   6
37,   8, 171
38, 171, 172
39, 172, 173
40, 173, 174
41, 174, 175
42, 175, 176
43, 176, 177
44, 177,   7
45,   9, 178
46, 178, 179
47, 179, 180
48, 180, 181
49, 181, 182
50, 182, 183
51, 183, 184
52, 184,   8
53,  10, 185
54, 185, 186
55, 186, 187
56, 187, 188
57, 188, 189
58, 189, 190
59, 190, 191
60, 191,   9
61,  11, 192
62, 192, 193
63, 193, 194
64, 194, 195
65, 195, 196
66, 196, 197
67, 197, 198
68, 198,  10
69,  12, 199
70, 199, 200
71, 200, 201
72, 201, 202
73, 202, 203
74, 203, 204
75, 204, 205
76, 205,  11
77,  13, 206
78, 206, 207
79, 207, 208
80, 208, 209
81, 209, 210
82, 210, 211
83, 211, 212
84, 212,  12
85,  14, 213
86, 213, 214
87, 214, 215
88, 215, 216
89, 216, 217
90, 217, 218
91, 218, 219
92, 219,  13
93,  15, 220
94, 220, 221
95, 221, 222
96, 222,  14
 97,  16, 223
 98, 223, 224
 99, 224, 225
100, 225,  15
101,  17, 226
102, 226, 227
103, 227, 228
104, 228, 229
105, 229, 230
106, 230, 231
107, 231, 232
108, 232,  16
109,  18, 233
110, 233, 234
111, 234, 235
112, 235, 236
113, 236, 237
114, 237, 238
115, 238, 239
116, 239,  17
117,  19, 240
118, 240, 241
119, 241, 242
120, 242, 243
121, 243, 244
122, 244, 245
123, 245, 246
124, 246,  18
125,  20, 247
126, 247, 248
127, 248, 249
128, 249, 250
129, 250, 251
130, 251, 252
131, 252, 253
132, 253,  19
133,  21, 254
134, 254, 255
135, 255, 256
136, 256, 257
137, 257, 258
138, 258, 259
139, 259, 260
140, 260,  20
141,  22, 261
142, 261, 262
143, 262, 263
144, 263, 264
145, 264, 265
146, 265, 266
147, 266, 267
148, 267,  21
149,  23, 268
150, 268, 269
151, 269, 270
152, 270, 271
153, 271, 272
154, 272, 273
155, 273, 274
156, 274,  22
157,  24, 275
158, 275, 276
159, 276, 277
160, 277, 278
161, 278, 279
162, 279, 280
163, 280, 281
164, 281,  23
165,  25, 282
166, 282, 283
167, 283, 284
168, 284, 285
169, 285, 286
170, 286, 287
171, 287, 288
172, 288,  24
173,  26, 289
174, 289, 290
175, 290, 291
176, 291, 292
177, 292, 293
178, 293, 294
179, 294, 295
180, 295,  25
181,  27, 296
182, 296, 297
183, 297, 298
184, 298,  26
185,  27, 299
186, 299, 300
187, 300, 301
188, 301, 302
189, 302,  28
190,  29, 303
191, 303, 304
192, 304, 305
193, 305, 306
194, 306, 307
195, 307, 308
196, 308,   5
197,  30, 309
198, 309, 310
199, 310, 311
200, 311, 312
201, 312, 313
202, 313, 314
203, 314, 315
204, 315, 316
205, 316, 317
206, 317,  29
207,  31, 318
208, 318, 319
209, 319, 320
210, 320, 321
211, 321, 322
212, 322, 323
213, 323,  30
214,  32, 324
215, 324, 325
216, 325,  31
217,  33, 326
218, 326, 327
219, 327, 328
220, 328, 329
221, 329,  32
222,   9, 330
223, 330, 331
224, 331, 332
225, 332, 333
226, 333,  34
227,  35, 334
228, 334, 335
229, 335,   9
230,  36, 336
231, 336, 337
232, 337, 338
233, 338, 339
234, 339, 340
235, 340, 341
236, 341,  35
237,  37, 342
238, 342, 343
239, 343, 344
240, 344, 345
241, 345, 346
242, 346, 347
243, 347, 348
244, 348, 349
245, 349, 350
246, 350,  36
247,  38, 351
248, 351, 352
249, 352, 353
250, 353, 354
251, 354, 355
252, 355, 356
253, 356,  37
254,  39, 357
255, 357, 358
256, 358,  38
257,  40, 359
258, 359, 360
259, 360, 361
260, 361, 362
261, 362,  39
262,  15, 363
263, 363, 364
264, 364, 365
265, 365, 366
266, 366,  41
267,  42, 367
268, 367, 368
269, 368,  15
270,  43, 369
271, 369, 370
272, 370, 371
273, 371, 372
274, 372, 373
275, 373, 374
276, 374,  42
277,  44, 375
278, 375, 376
279, 376, 377
280, 377, 378
281, 378, 379
282, 379, 380
283, 380, 381
284, 381, 382
285, 382, 383
286, 383,  43
287,  45, 384
288, 384, 385
289, 385, 386
290, 386, 387
291, 387, 388
292, 388, 389
293, 389,  44
294,  46, 390
295, 390, 391
296, 391,  45
297,  47, 392
298, 392, 393
299, 393, 394
300, 394, 395
301, 395,  46
302,  21, 396
303, 396, 397
304, 397, 398
305, 398, 399
306, 399,  48
307,  49, 400
308, 400, 401
309, 401,  21
310,  50, 402
311, 402, 403
312, 403, 404
313, 404, 405
314, 405, 406
315, 406, 407
316, 407,  49
317,  51, 408
318, 408, 409
319, 409, 410
320, 410, 411
321, 411, 412
322, 412, 413
323, 413, 414
324, 414, 415
325, 415, 416
326, 416,  50
327,  52, 417
328, 417, 418
329, 418, 419
330, 419, 420
331, 420, 421
332, 421, 422
333, 422,  51
334,  53, 423
335, 423, 424
336, 424,  52
337,  54, 425
338, 425, 426
339, 426, 427
340, 427, 428
341, 428,  53
342,  55, 429
343, 429, 430
344, 430,  27
345,  56, 431
346, 431, 432
347, 432, 433
348, 433, 434
349, 434, 435
350, 435, 436
351, 436,  55
352,  57, 437
353, 437, 438
354, 438, 439
355, 439, 440
356, 440, 441
357, 441, 442
358, 442, 443
359, 443, 444
360, 444, 445
361, 445,  56
362,  58, 446
363, 446, 447
364, 447, 448
365, 448, 449
366, 449, 450
367, 450, 451
368, 451,  57
369,  59, 452
370, 452, 453
371, 453,  58
372,  60, 454
373, 454, 455
374, 455, 456
375, 456, 457
376, 457,  59
377,  61, 458
378, 458, 459
379, 459, 460
380, 460, 461
381, 461, 462
382, 462, 463
383, 463, 464
384, 464, 465
385, 465, 466
386, 466, 467
387, 467, 468
388, 468, 469
389, 469, 470
390, 470, 471
391, 471, 472
392, 472,   5
393,  62, 473
394, 473, 474
395, 474, 475
396, 475,  61
397,  63, 476
398, 476, 477
399, 477, 478
400, 478,  29
401,  64, 479
402, 479, 480
403, 480, 481
404, 481, 482
405, 482, 483
406, 483, 484
407, 484, 485
408, 485,  63
409,  65, 486
410, 486, 487
411, 487, 488
412, 488, 489
413, 489, 490
414, 490, 491
415, 491, 492
416, 492,  64
417,  66, 493
418, 493, 494
419, 494, 495
420, 495, 496
421, 496, 497
422, 497, 498
423, 498, 499
424, 499,  65
425,  67, 500
426, 500, 501
427, 501, 502
428, 502, 503
429, 503, 504
430, 504, 505
431, 505, 506
432, 506,  66
433,  36, 507
434, 507, 508
435, 508, 509
436, 509, 510
437, 510, 511
438, 511, 512
439, 512, 513
440, 513,  67
441,  68, 514
442, 514, 515
443, 515, 516
444, 516, 517
445, 517, 518
446, 518, 519
447, 519, 520
448, 520,  36
449,  69, 521
450, 521, 522
451, 522, 523
452, 523, 524
453, 524, 525
454, 525, 526
455, 526, 527
456, 527,  68
457,  70, 528
458, 528, 529
459, 529, 530
460, 530, 531
461, 531, 532
462, 532, 533
463, 533, 534
464, 534,  69
465,  71, 535
466, 535, 536
467, 536, 537
468, 537, 538
469, 538, 539
470, 539, 540
471, 540, 541
472, 541,  70
473,  72, 542
474, 542, 543
475, 543, 544
476, 544, 545
477, 545, 546
478, 546, 547
479, 547, 548
480, 548,  71
481,  43, 549
482, 549, 550
483, 550, 551
484, 551,  72
485,  73, 552
486, 552, 553
487, 553, 554
488, 554,  43
489,  74, 555
490, 555, 556
491, 556, 557
492, 557, 558
493, 558, 559
494, 559, 560
495, 560, 561
496, 561,  73
497,  75, 562
498, 562, 563
499, 563, 564
500, 564, 565
501, 565, 566
502, 566, 567
503, 567, 568
504, 568,  74
505,  76, 569
506, 569, 570
507, 570, 571
508, 571, 572
509, 572, 573
510, 573, 574
511, 574, 575
512, 575,  75
513,  77, 576
514, 576, 577
515, 577, 578
516, 578, 579
517, 579, 580
518, 580, 581
519, 581, 582
520, 582,  76
521,  50, 583
522, 583, 584
523, 584, 585
524, 585, 586
525, 586, 587
526, 587, 588
527, 588, 589
528, 589,  77
529,  78, 590
530, 590, 591
531, 591, 592
532, 592, 593
533, 593, 594
534, 594, 595
535, 595, 596
536, 596,  50
537,  79, 597
538, 597, 598
539, 598, 599
540, 599, 600
541, 600, 601
542, 601, 602
543, 602, 603
544, 603,  78
545,  80, 604
546, 604, 605
547, 605, 606
548, 606, 607
549, 607, 608
550, 608, 609
551, 609, 610
552, 610,  79
553,  81, 611
554, 611, 612
555, 612, 613
556, 613, 614
557, 614, 615
558, 615, 616
559, 616, 617
560, 617,  80
561,  82, 618
562, 618, 619
563, 619, 620
564, 620, 621
565, 621, 622
566, 622, 623
567, 623, 624
568, 624,  81
569,  56, 625
570, 625, 626
571, 626, 627
572, 627,  82
573,  83, 628
574, 628, 629
575, 629, 630
576, 630,  30
577,  84, 631
578, 631, 632
579, 632, 633
580, 633, 634
581, 634, 635
582, 635, 636
583, 636, 637
584, 637,  83
585,  85, 638
586, 638, 639
587, 639, 640
588, 640, 641
589, 641, 642
590, 642, 643
591, 643, 644
592, 644,  84
593,  86, 645
594, 645, 646
595, 646, 647
596, 647, 648
597, 648, 649
598, 649, 650
599, 650, 651
600, 651,  85
601,  87, 652
602, 652, 653
603, 653, 654
604, 654, 655
605, 655, 656
606, 656, 657
607, 657, 658
608, 658,  86
609,  37, 659
610, 659, 660
611, 660, 661
612, 661, 662
613, 662, 663
614, 663, 664
615, 664, 665
616, 665,  87
617,  88, 666
618, 666, 667
619, 667, 668
620, 668, 669
621, 669, 670
622, 670, 671
623, 671, 672
624, 672,  37
625,  89, 673
626, 673, 674
627, 674, 675
628, 675, 676
629, 676, 677
630, 677, 678
631, 678, 679
632, 679,  88
633,  90, 680
634, 680, 681
635, 681, 682
636, 682, 683
637, 683, 684
638, 684, 685
639, 685, 686
640, 686,  89
641,  91, 687
642, 687, 688
643, 688, 689
644, 689, 690
645, 690, 691
646, 691, 692
647, 692, 693
648, 693,  90
649,  92, 694
650, 694, 695
651, 695, 696
652, 696, 697
653, 697, 698
654, 698, 699
655, 699, 700
656, 700,  91
657,  44, 701
658, 701, 702
659, 702, 703
660, 703,  92
661,  93, 704
662, 704, 705
663, 705, 706
664, 706,  44
665,  94, 707
666, 707, 708
667, 708, 709
668, 709, 710
669, 710, 711
670, 711, 712
671, 712, 713
672, 713,  93
673,  95, 714
674, 714, 715
675, 715, 716
676, 716, 717
677, 717, 718
678, 718, 719
679, 719, 720
680, 720,  94
681,  96, 721
682, 721, 722
683, 722, 723
684, 723, 724
685, 724, 725
686, 725, 726
687, 726, 727
688, 727,  95
689,  97, 728
690, 728, 729
691, 729, 730
692, 730, 731
693, 731, 732
694, 732, 733
695, 733, 734
696, 734,  96
697,  51, 735
698, 735, 736
699, 736, 737
700, 737, 738
701, 738, 739
702, 739, 740
703, 740, 741
704, 741,  97
705,  98, 742
706, 742, 743
707, 743, 744
708, 744, 745
709, 745, 746
710, 746, 747
711, 747, 748
712, 748,  51
713,  99, 749
714, 749, 750
715, 750, 751
716, 751, 752
717, 752, 753
718, 753, 754
719, 754, 755
720, 755,  98
721, 100, 756
722, 756, 757
723, 757, 758
724, 758, 759
725, 759, 760
726, 760, 761
727, 761, 762
728, 762,  99
729, 101, 763
730, 763, 764
731, 764, 765
732, 765, 766
733, 766, 767
734, 767, 768
735, 768, 769
736, 769, 100
737, 102, 770
738, 770, 771
739, 771, 772
740, 772, 773
741, 773, 774
742, 774, 775
743, 775, 776
744, 776, 101
745,  57, 777
746, 777, 778
747, 778, 779
748, 779, 102
749, 103,  31
750, 104, 780
751, 780, 781
752, 781, 782
753, 782, 783
754, 783, 784
755, 784, 785
756, 785, 786
757, 786, 787
758, 787, 103
759, 105, 788
760, 788, 789
761, 789, 790
762, 790,  32
763, 106, 791
764, 791, 792
765, 792, 793
766, 793, 794
767, 794, 795
768, 795, 796
769, 796, 797
770, 797, 105
771, 107, 798
772, 798, 799
773, 799, 800
774, 800, 801
775, 801, 802
776, 802, 803
777, 803, 804
778, 804, 106
779, 108, 805
780, 805, 806
781, 806, 807
782, 807, 808
783, 808, 809
784, 809, 810
785, 810, 811
786, 811, 107
787, 109, 812
788, 812, 813
789, 813, 814
790, 814, 815
791, 815, 816
792, 816, 817
793, 817, 818
794, 818, 108
795,  39, 819
796, 819, 820
797, 820, 821
798, 821, 822
799, 822, 823
800, 823, 824
801, 824, 825
802, 825, 109
803, 110, 826
804, 826, 827
805, 827, 828
806, 828, 829
807, 829, 830
808, 830, 831
809, 831, 832
810, 832,  39
811, 111, 833
812, 833, 834
813, 834, 835
814, 835, 836
815, 836, 837
816, 837, 838
817, 838, 839
818, 839, 110
819, 112, 840
820, 840, 841
821, 841, 842
822, 842, 843
823, 843, 844
824, 844, 845
825, 845, 846
826, 846, 111
827, 113, 847
828, 847, 848
829, 848, 849
830, 849, 850
831, 850, 851
832, 851, 852
833, 852, 853
834, 853, 112
835, 114, 854
836, 854, 855
837, 855, 856
838, 856, 857
839, 857, 858
840, 858, 859
841, 859, 860
842, 860, 113
843,  46, 861
844, 861, 862
845, 862, 863
846, 863, 114
847, 115, 864
848, 864, 865
849, 865, 866
850, 866,  46
851, 116, 867
852, 867, 868
853, 868, 869
854, 869, 870
855, 870, 871
856, 871, 872
857, 872, 873
858, 873, 115
859, 117, 874
860, 874, 875
861, 875, 876
862, 876, 877
863, 877, 878
864, 878, 879
865, 879, 880
866, 880, 116
867, 118, 881
868, 881, 882
869, 882, 883
870, 883, 884
871, 884, 885
872, 885, 886
873, 886, 887
874, 887, 117
875, 119, 888
876, 888, 889
877, 889, 890
878, 890, 891
879, 891, 892
880, 892, 893
881, 893, 894
882, 894, 118
883,  53, 895
884, 895, 896
885, 896, 897
886, 897, 898
887, 898, 899
888, 899, 900
889, 900, 901
890, 901, 119
891, 120, 902
892, 902, 903
893, 903, 904
894, 904, 905
895, 905, 906
896, 906, 907
897, 907, 908
898, 908,  53
899, 121, 909
900, 909, 910
901, 910, 911
902, 911, 912
903, 912, 913
904, 913, 914
905, 914, 915
906, 915, 120
907, 122, 916
908, 916, 917
909, 917, 918
910, 918, 919
911, 919, 920
912, 920, 921
913, 921, 922
914, 922, 121
915, 123, 923
916, 923, 924
917, 924, 925
918, 925, 926
919, 926, 927
920, 927, 928
921, 928, 929
922, 929, 122
923, 124, 930
924, 930, 931
925, 931, 932
926, 932, 933
927, 933, 934
928, 934, 935
929, 935, 936
930, 936, 123
931,  59, 937
932, 937, 938
933, 938, 939
934, 939, 124
935, 125, 940
936, 940, 941
937, 941, 942
938, 942, 943
939, 943, 944
940, 944, 945
941, 945, 946
942, 946, 947
943, 947, 948
944, 948, 949
945, 949, 950
946, 950, 951
947, 951, 952
948, 952, 953
949, 953, 954
950, 954,  35
951, 126, 955
952, 955, 956
953, 956, 957
954, 957, 125
955, 127,  38
956, 128, 958
957, 958, 959
958, 959, 960
959, 960, 961
960, 961, 962
961, 962, 963
962, 963, 964
963, 964, 965
964, 965, 127
965, 129, 966
966, 966, 967
967, 967, 968
968, 968, 969
969, 969, 970
970, 970, 971
971, 971, 972
972, 972, 973
973, 973, 974
974, 974, 975
975, 975, 976
976, 976, 977
977, 977, 978
978, 978, 979
979, 979, 980
980, 980,  42
981, 130, 981
982, 981, 982
983, 982, 983
984, 983, 129
985, 131,  45
986, 132, 984
987, 984, 985
988, 985, 986
989, 986, 987
990, 987, 988
991, 988, 989
992, 989, 990
993, 990, 991
994, 991, 131
 995,  133,  992
 996,  992,  993
 997,  993,  994
 998,  994,  995
 999,  995,  996
1000,  996,  997
1001,  997,  998
1002,  998,  999
1003,  999, 1000
1004, 1000, 1001
1005, 1001, 1002
1006, 1002, 1003
1007, 1003, 1004
1008, 1004, 1005
1009, 1005, 1006
1010, 1006,   49
1011,  134, 1007
1012, 1007, 1008
1013, 1008, 1009
1014, 1009,  133
1015, 135,  52
1016,  136, 1010
1017, 1010, 1011
1018, 1011, 1012
1019, 1012, 1013
1020, 1013, 1014
1021, 1014, 1015
1022, 1015, 1016
1023, 1016, 1017
1024, 1017,  135
1025,  137, 1018
1026, 1018, 1019
1027, 1019, 1020
1028, 1020, 1021
1029, 1021, 1022
1030, 1022, 1023
1031, 1023, 1024
1032, 1024, 1025
1033, 1025, 1026
1034, 1026, 1027
1035, 1027, 1028
1036, 1028, 1029
1037, 1029, 1030
1038, 1030, 1031
1039, 1031, 1032
1040, 1032,   55
1041,  138, 1033
1042, 1033, 1034
1043, 1034, 1035
1044, 1035,  137
1045, 139,  58
1046,  140, 1036
1047, 1036, 1037
1048, 1037, 1038
1049, 1038, 1039
1050, 1039, 1040
1051, 1040, 1041
1052, 1041, 1042
1053, 1042, 1043
1054, 1043,  139
1055,  103, 1044
1056, 1044, 1045
1057, 1045, 1046
1058, 1046, 1047
1059, 1047, 1048
1060, 1048, 1049
1061, 1049, 1050
1062, 1050, 1051
1063, 1051, 1052
1064, 1052, 1053
1065, 1053, 1054
1066, 1054, 1055
1067, 1055, 1056
1068, 1056, 1057
1069, 1057, 1058
1070, 1058, 1059
1071, 1059, 1060
1072, 1060, 1061
1073, 1061, 1062
1074, 1062, 1063
1075, 1063, 1064
1076, 1064,   61
1077,  127, 1065
1078, 1065, 1066
1079, 1066, 1067
1080, 1067, 1068
1081, 1068, 1069
1082, 1069, 1070
1083, 1070, 1071
1084, 1071, 1072
1085, 1072, 1073
1086, 1073, 1074
1087, 1074, 1075
1088, 1075, 1076
1089, 1076, 1077
1090, 1077, 1078
1091, 1078, 1079
1092, 1079, 1080
1093, 1080, 1081
1094, 1081, 1082
1095, 1082, 1083
1096, 1083, 1084
1097, 1084, 1085
1098, 1085,  125
1099,  131, 1086
1100, 1086, 1087
1101, 1087, 1088
1102, 1088, 1089
1103, 1089, 1090
1104, 1090, 1091
1105, 1091, 1092
1106, 1092, 1093
1107, 1093, 1094
1108, 1094, 1095
1109, 1095, 1096
1110, 1096, 1097
1111, 1097, 1098
1112, 1098, 1099
1113, 1099, 1100
1114, 1100, 1101
1115, 1101, 1102
1116, 1102, 1103
1117, 1103, 1104
1118, 1104, 1105
1119, 1105, 1106
1120, 1106,  129
1121,  135, 1107
1122, 1107, 1108
1123, 1108, 1109
1124, 1109, 1110
1125, 1110, 1111
1126, 1111, 1112
1127, 1112, 1113
1128, 1113, 1114
1129, 1114, 1115
1130, 1115, 1116
1131, 1116, 1117
1132, 1117, 1118
1133, 1118, 1119
1134, 1119, 1120
1135, 1120, 1121
1136, 1121, 1122
1137, 1122, 1123
1138, 1123, 1124
1139, 1124, 1125
1140, 1125, 1126
1141, 1126, 1127
1142, 1127,  133
1143,  139, 1128
1144, 1128, 1129
1145, 1129, 1130
1146, 1130, 1131
1147, 1131, 1132
1148, 1132, 1133
1149, 1133, 1134
1150, 1134, 1135
1151, 1135, 1136
1152, 1136, 1137
1153, 1137, 1138
1154, 1138, 1139
1155, 1139, 1140
1156, 1140, 1141
1157, 1141, 1142
1158, 1142, 1143
1159, 1143, 1144
1160, 1144, 1145
1161, 1145, 1146
1162, 1146, 1147
1163, 1147, 1148
1164, 1148,  137
*Nset, nset=P2
   2,   3,   5,   9,  15,  21,  27,  28,  29,  30,  31,  32,  33,  34,  35,  36
  37,  38,  39,  40,  41,  42,  43,  44,  45,  46,  47,  48,  49,  50,  51,  52
  53,  54,  55,  56,  57,  58,  59,  60, 144, 145, 146, 147, 155, 156, 299, 300
 301, 302, 303, 304, 305, 306, 307, 308, 309, 310, 311, 312, 313, 314, 315, 316
 317, 318, 319, 320, 321, 322, 323, 324, 325, 326, 327, 328, 329, 330, 331, 332
 333, 334, 335, 336, 337, 338, 339, 340, 341, 342, 343, 344, 345, 346, 347, 348
 349, 350, 351, 352, 353, 354, 355, 356, 357, 358, 359, 360, 361, 362, 363, 364
 365, 366, 367, 368, 369, 370, 371, 372, 373, 374, 375, 376, 377, 378, 379, 380
 381, 382, 383, 384, 385, 386, 387, 388, 389, 390, 391, 392, 393, 394, 395, 396
 397, 398, 399, 400, 401, 402, 403, 404, 405, 406, 407, 408, 409, 410, 411, 412
 413, 414, 415, 416, 417, 418, 419, 420, 421, 422, 423, 424, 425, 426, 427, 428
 429, 430, 431, 432, 433, 434, 435, 436, 437, 438, 439, 440, 441, 442, 443, 444
 445, 446, 447, 448, 449, 450, 451, 452, 453, 454, 455, 456, 457
*Elset, elset=P2
   5,   6,   7,   8,   9,  18,  19,  20, 185, 186, 187, 188, 189, 190, 191, 192
 193, 194, 195, 196, 197, 198, 199, 200, 201, 202, 203, 204, 205, 206, 207, 208
 209, 210, 211, 212, 213, 214, 215, 216, 217, 218, 219, 220, 221, 222, 223, 224
 225, 226, 227, 228, 229, 230, 231, 232, 233, 234, 235, 236, 237, 238, 239, 240
 241, 242, 243, 244, 245, 246, 247, 248, 249, 250, 251, 252, 253, 254, 255, 256
 257, 258, 259, 260, 261, 262, 263, 264, 265, 266, 267, 268, 269, 270, 271, 272
 273, 274, 275, 276, 277, 278, 279, 280, 281, 282, 283, 284, 285, 286, 287, 288
 289, 290, 291, 292, 293, 294, 295, 296, 297, 298, 299, 300, 301, 302, 303, 304
 305, 306, 307, 308, 309, 310, 311, 312, 313, 314, 315, 316, 317, 318, 319, 320
 321, 322, 323, 324, 325, 326, 327, 328, 329, 330, 331, 332, 333, 334, 335, 336
 337, 338, 339, 340, 341, 342, 343, 344, 345, 346, 347, 348, 349, 350, 351, 352
 353, 354, 355, 356, 357, 358, 359, 360, 361, 362, 363, 364, 365, 366, 367, 368
 369, 370, 371, 372, 373, 374, 375, 376
*Nset, nset=P3
   31,   38,   45,   52,   58,  103,  104,  127,  128,  131,  132,  135,  136,  139,  140,  780
  781,  782,  783,  784,  785,  786,  787,  958,  959,  960,  961,  962,  963,  964,  965,  984
  985,  986,  987,  988,  989,  990,  991, 1010, 1011, 1012, 1013, 1014, 1015, 1016, 1017, 1036
 1037, 1038, 1039, 1040, 1041, 1042, 1043
*Elset, elset=P3
  749,  750,  751,  752,  753,  754,  755,  756,  757,  758,  955,  956,  957,  958,  959,  960
  961,  962,  963,  964,  985,  986,  987,  988,  989,  990,  991,  992,  993,  994, 1015, 1016
 1017, 1018, 1019, 1020, 1021, 1022, 1023, 1024, 1045, 1046, 1047, 1048, 1049, 1050, 1051, 1052
 1053, 1054
*Nset, nset=P4
    5,   35,   42,   49,   55,   61,   62,  125,  126,  129,  130,  133,  134,  137,  138,  458
  459,  460,  461,  462,  463,  464,  465,  466,  467,  468,  469,  470,  471,  472,  473,  474
  475,  940,  941,  942,  943,  944,  945,  946,  947,  948,  949,  950,  951,  952,  953,  954
  955,  956,  957,  966,  967,  968,  969,  970,  971,  972,  973,  974,  975,  976,  977,  978
  979,  980,  981,  982,  983,  992,  993,  994,  995,  996,  997,  998,  999, 1000, 1001, 1002
 1003, 1004, 1005, 1006, 1007, 1008, 1009, 1018, 1019, 1020, 1021, 1022, 1023, 1024, 1025, 1026
 1027, 1028, 1029, 1030, 1031, 1032, 1033, 1034, 1035
*Elset, elset=P4
  377,  378,  379,  380,  381,  382,  383,  384,  385,  386,  387,  388,  389,  390,  391,  392
  393,  394,  395,  396,  935,  936,  937,  938,  939,  940,  941,  942,  943,  944,  945,  946
  947,  948,  949,  950,  951,  952,  953,  954,  965,  966,  967,  968,  969,  970,  971,  972
  973,  974,  975,  976,  977,  978,  979,  980,  981,  982,  983,  984,  995,  996,  997,  998
  999, 1000, 1001, 1002, 1003, 1004, 1005, 1006, 1007, 1008, 1009, 1010, 1011, 1012, 1013, 1014
 1025, 1026, 1027, 1028, 1029, 1030, 1031, 1032, 1033, 1034, 1035, 1036, 1037, 1038, 1039, 1040
 1041, 1042, 1043, 1044
*Nset, nset=P5
   1,   2,   4,   6,   7,   8,   9,  10,  11,  12,  13,  14,  15,  16,  17,  18
  19,  20,  21,  22,  23,  24,  25,  26,  27,  29,  30,  32,  36,  37,  39,  43
  44,  46,  50,  51,  53,  56,  57,  59,  63,  64,  65,  66,  67,  68,  69,  70
  71,  72,  73,  74,  75,  76,  77,  78,  79,  80,  81,  82,  83,  84,  85,  86
  87,  88,  89,  90,  91,  92,  93,  94,  95,  96,  97,  98,  99, 100, 101, 102
 105, 106, 107, 108, 109, 110, 111, 112, 113, 114, 115, 116, 117, 118, 119, 120
 121, 122, 123, 124, 141, 142, 143, 148, 149, 150, 151, 152, 153, 154, 157, 158
 159, 160, 161, 162, 163, 164, 165, 166, 167, 168, 169, 170, 171, 172, 173, 174
 175, 176, 177, 178, 179, 180, 181, 182, 183, 184, 185, 186, 187, 188, 189, 190
 191, 192, 193, 194, 195, 196, 197, 198, 199, 200, 201, 202, 203, 204, 205, 206
 207, 208, 209, 210, 211, 212, 213, 214, 215, 216, 217, 218, 219, 220, 221, 222
 223, 224, 225, 226, 227, 228, 229, 230, 231, 232, 233, 234, 235, 236, 237, 238
 239, 240, 241, 242, 243, 244, 245, 246, 247, 248, 249, 250, 251, 252, 253, 254
 255, 256, 257, 258, 259, 260, 261, 262, 263, 264, 265, 266, 267, 268, 269, 270
 271, 272, 273, 274, 275, 276, 277, 278, 279, 280, 281, 282, 283, 284, 285, 286
 287, 288, 289, 290, 291, 292, 293, 294, 295, 296, 297, 298, 476, 477, 478, 479
 480, 481, 482, 483, 484, 485, 486, 487, 488, 489, 490, 491, 492, 493, 494, 495
 496, 497, 498, 499, 500, 501, 502, 503, 504, 505, 506, 507, 508, 509, 510, 511
 512, 513, 514, 515, 516, 517, 518, 519, 520, 521, 522, 523, 524, 525, 526, 527
 528, 529, 530, 531, 532, 533, 534, 535, 536, 537, 538, 539, 540, 541, 542, 543
 544, 545, 546, 547, 548, 549, 550, 551, 552, 553, 554, 555, 556, 557, 558, 559
 560, 561, 562, 563, 564, 565, 566, 567, 568, 569, 570, 571, 572, 573, 574, 575
 576, 577, 578, 579, 580, 581, 582, 583, 584, 585, 586, 587, 588, 589, 590, 591
 592, 593, 594, 595, 596, 597, 598, 599, 600, 601, 602, 603, 604, 605, 606, 607
 608, 609, 610, 611, 612, 613, 614, 615, 616, 617, 618, 619, 620, 621, 622, 623
 624, 625, 626, 627, 628, 629, 630, 631, 632, 633, 634, 635, 636, 637, 638, 639
 640, 641, 642, 643, 644, 645, 646, 647, 648, 649, 650, 651, 652, 653, 654, 655
 656, 657, 658, 659, 660, 661, 662, 663, 664, 665, 666, 667, 668, 669, 670, 671
 672, 673, 674, 675, 676, 677, 678, 679, 680, 681, 682, 683, 684, 685, 686, 687
 688, 689, 690, 691, 692, 693, 694, 695, 696, 697, 698, 699, 700, 701, 702, 703
 704, 705, 706, 707, 708, 709, 710, 711, 712, 713, 714, 715, 716, 717, 718, 719
 720, 721, 722, 723, 724, 725, 726, 727, 728, 729, 730, 731, 732, 733, 734, 735
 736, 737, 738, 739, 740, 741, 742, 743, 744, 745, 746, 747, 748, 749, 750, 751
 752, 753, 754, 755, 756, 757, 758, 759, 760, 761, 762, 763, 764, 765, 766, 767
 768, 769, 770, 771, 772, 773, 774, 775, 776, 777, 778, 779, 788, 789, 790, 791
 792, 793, 794, 795, 796, 797, 798, 799, 800, 801, 802, 803, 804, 805, 806, 807
 808, 809, 810, 811, 812, 813, 814, 815, 816, 817, 818, 819, 820, 821, 822, 823
 824, 825, 826, 827, 828, 829, 830, 831, 832, 833, 834, 835, 836, 837, 838, 839
 840, 841, 842, 843, 844, 845, 846, 847, 848, 849, 850, 851, 852, 853, 854, 855
 856, 857, 858, 859, 860, 861, 862, 863, 864, 865, 866, 867, 868, 869, 870, 871
 872, 873, 874, 875, 876, 877, 878, 879, 880, 881, 882, 883, 884, 885, 886, 887
 888, 889, 890, 891, 892, 893, 894, 895, 896, 897, 898, 899, 900, 901, 902, 903
 904, 905, 906, 907, 908, 909, 910, 911, 912, 913, 914, 915, 916, 917, 918, 919
 920, 921, 922, 923, 924, 925, 926, 927, 928, 929, 930, 931, 932, 933, 934, 935
 936, 937, 938, 939
*Elset, elset=P5
   1,   2,   3,   4,  10,  11,  12,  13,  14,  15,  16,  17,  21,  22,  23,  24
  25,  26,  27,  28,  29,  30,  31,  32,  33,  34,  35,  36,  37,  38,  39,  40
  41,  42,  43,  44,  45,  46,  47,  48,  49,  50,  51,  52,  53,  54,  55,  56
  57,  58,  59,  60,  61,  62,  63,  64,  65,  66,  67,  68,  69,  70,  71,  72
  73,  74,  75,  76,  77,  78,  79,  80,  81,  82,  83,  84,  85,  86,  87,  88
  89,  90,  91,  92,  93,  94,  95,  96,  97,  98,  99, 100, 101, 102, 103, 104
 105, 106, 107, 108, 109, 110, 111, 112, 113, 114, 115, 116, 117, 118, 119, 120
 121, 122, 123, 124, 125, 126, 127, 128, 129, 130, 131, 132, 133, 134, 135, 136
 137, 138, 139, 140, 141, 142, 143, 144, 145, 146, 147, 148, 149, 150, 151, 152
 153, 154, 155, 156, 157, 158, 159, 160, 161, 162, 163, 164, 165, 166, 167, 168
 169, 170, 171, 172, 173, 174, 175, 176, 177, 178, 179, 180, 181, 182, 183, 184
 397, 398, 399, 400, 401, 402, 403, 404, 405, 406, 407, 408, 409, 410, 411, 412
 413, 414, 415, 416, 417, 418, 419, 420, 421, 422, 423, 424, 425, 426, 427, 428
 429, 430, 431, 432, 433, 434, 435, 436, 437, 438, 439, 440, 441, 442, 443, 444
 445, 446, 447, 448, 449, 450, 451, 452, 453, 454, 455, 456, 457, 458, 459, 460
 461, 462, 463, 464, 465, 466, 467, 468, 469, 470, 471, 472, 473, 474, 475, 476
 477, 478, 479, 480, 481, 482, 483, 484, 485, 486, 487, 488, 489, 490, 491, 492
 493, 494, 495, 496, 497, 498, 499, 500, 501, 502, 503, 504, 505, 506, 507, 508
 509, 510, 511, 512, 513, 514, 515, 516, 517, 518, 519, 520, 521, 522, 523, 524
 525, 526, 527, 528, 529, 530, 531, 532, 533, 534, 535, 536, 537, 538, 539, 540
 541, 542, 543, 544, 545, 546, 547, 548, 549, 550, 551, 552, 553, 554, 555, 556
 557, 558, 559, 560, 561, 562, 563, 564, 565, 566, 567, 568, 569, 570, 571, 572
 573, 574, 575, 576, 577, 578, 579, 580, 581, 582, 583, 584, 585, 586, 587, 588
 589, 590, 591, 592, 593, 594, 595, 596, 597, 598, 599, 600, 601, 602, 603, 604
 605, 606, 607, 608, 609, 610, 611, 612, 613, 614, 615, 616, 617, 618, 619, 620
 621, 622, 623, 624, 625, 626, 627, 628, 629, 630, 631, 632, 633, 634, 635, 636
 637, 638, 639, 640, 641, 642, 643, 644, 645, 646, 647, 648, 649, 650, 651, 652
 653, 654, 655, 656, 657, 658, 659, 660, 661, 662, 663, 664, 665, 666, 667, 668
 669, 670, 671, 672, 673, 674, 675, 676, 677, 678, 679, 680, 681, 682, 683, 684
 685, 686, 687, 688, 689, 690, 691, 692, 693, 694, 695, 696, 697, 698, 699, 700
 701, 702, 703, 704, 705, 706, 707, 708, 709, 710, 711, 712, 713, 714, 715, 716
 717, 718, 719, 720, 721, 722, 723, 724, 725, 726, 727, 728, 729, 730, 731, 732
 733, 734, 735, 736, 737, 738, 739, 740, 741, 742, 743, 744, 745, 746, 747, 748
 759, 760, 761, 762, 763, 764, 765, 766, 767, 768, 769, 770, 771, 772, 773, 774
 775, 776, 777, 778, 779, 780, 781, 782, 783, 784, 785, 786, 787, 788, 789, 790
 791, 792, 793, 794, 795, 796, 797, 798, 799, 800, 801, 802, 803, 804, 805, 806
 807, 808, 809, 810, 811, 812, 813, 814, 815, 816, 817, 818, 819, 820, 821, 822
 823, 824, 825, 826, 827, 828, 829, 830, 831, 832, 833, 834, 835, 836, 837, 838
 839, 840, 841, 842, 843, 844, 845, 846, 847, 848, 849, 850, 851, 852, 853, 854
 855, 856, 857, 858, 859, 860, 861, 862, 863, 864, 865, 866, 867, 868, 869, 870
 871, 872, 873, 874, 875, 876, 877, 878, 879, 880, 881, 882, 883, 884, 885, 886
 887, 888, 889, 890, 891, 892, 893, 894, 895, 896, 897, 898, 899, 900, 901, 902
 903, 904, 905, 906, 907, 908, 909, 910, 911, 912, 913, 914, 915, 916, 917, 918
 919, 920, 921, 922, 923, 924, 925, 926, 927, 928, 929, 930, 931, 932, 933, 934
*Nset, nset=P6
   61,  103,  125,  127,  129,  131,  133,  135,  137,  139, 1044, 1045, 1046, 1047, 1048, 1049
 1050, 1051, 1052, 1053, 1054, 1055, 1056, 1057, 1058, 1059, 1060, 1061, 1062, 1063, 1064, 1065
 1066, 1067, 1068, 1069, 1070, 1071, 1072, 1073, 1074, 1075, 1076, 1077, 1078, 1079, 1080, 1081
 1082, 1083, 1084, 1085, 1086, 1087, 1088, 1089, 1090, 1091, 1092, 1093, 1094, 1095, 1096, 1097
 1098, 1099, 1100, 1101, 1102, 1103, 1104, 1105, 1106, 1107, 1108, 1109, 1110, 1111, 1112, 1113
 1114, 1115, 1116, 1117, 1118, 1119, 1120, 1121, 1122, 1123, 1124, 1125, 1126, 1127, 1128, 1129
 1130, 1131, 1132, 1133, 1134, 1135, 1136, 1137, 1138, 1139, 1140, 1141, 1142, 1143, 1144, 1145
 1146, 1147, 1148
*Elset, elset=P6, generate
 1055,  1164,     1
** Section: P5  Profile: C100
*Beam Section, elset=P5, material=S235JR, poisson = 0.3, temperature=GRADIENTS, section=ARBITRARY
5, 29.1607, 30., 29.1607, 48., 4.
-16.8393, 48., 4.
-16.8393, -48., 4.
29.1607, -48., 4.
29.1607, -30., 4.
0.,0.906351,0.422525
** Section: P2  Profile: C125
*Beam Section, elset=P2, material=S355JR, poisson = 0.3, temperature=GRADIENTS, section=ARBITRARY
5, 36.9745, 37.5, 36.9745, 60.5, 4.
-21.5255, 60.5, 4.
-21.5255, -60.5, 4.
36.9745, -60.5, 4.
36.9745, -37.5, 4.
1.,0.,0.
** Section: P4  Profile: C125
*Beam Section, elset=P4, material=S235JR, poisson = 0.3, temperature=GRADIENTS, section=ARBITRARY
5, 36.9745, 37.5, 36.9745, 60.5, 4.
-21.5255, 60.5, 4.
-21.5255, -60.5, 4.
36.9745, -60.5, 4.
36.9745, -37.5, 4.
1.,0.,0.
** Section: P3  Profile: C125
*Beam Section, elset=P3, material=S235JR, poisson = 0.3, temperature=GRADIENTS, section=ARBITRARY
5, 36.9745, 37.5, 36.9745, 60.5, 4.
-21.5255, 60.5, 4.
-21.5255, -60.5, 4.
36.9745, -60.5, 4.
36.9745, -37.5, 4.
1.,0.,0.
** Section: P6  Profile: C50
*Beam Section, elset=P6, material=S235JR, poisson = 0.3, temperature=GRADIENTS, section=ARBITRARY
3, 16.875, 22.5, -5.625, 22.5, 5.
-5.625, -22.5, 5.
16.875, -22.5, 5.
1.,0.,0.
*End Part
**  
**
** ASSEMBLY
**
*Assembly, name=Assembly
**  
*Instance, name=FRAME, part=SteelFrame
*End Instance
**  
*Nset, nset=BASES, instance=FRAME
  62, 104, 126, 128, 130, 132, 134, 136, 138, 140
*Nset, nset=CONTACT_ROW_1, instance=FRAME
  39,  53, 105, 106, 107, 108, 109, 110, 111, 112, 113, 114, 115, 116, 117, 118
 119, 120, 121, 122, 123, 124
*Nset, nset=CONTACT_ROW_2, instance=FRAME
  37,  51,  83,  84,  85,  86,  87,  88,  89,  90,  91,  92,  93,  94,  95,  96
  97,  98,  99, 100, 101, 102
*Nset, nset=CONTACT_ROW_3, instance=FRAME
 36, 50, 63, 64, 65, 66, 67, 68, 69, 70, 71, 72, 73, 74, 75, 76
 77, 78, 79, 80, 81, 82
*Nset, nset=CONTACT_ROW_4, instance=FRAME
  1,  4,  6,  7,  8,  9, 10, 11, 12, 13, 14, 16, 17, 18, 19, 20
 21, 22, 23, 24, 25, 26
*End Assembly
** 
** MATERIALS
** 
*Material, name=S235JR
*Density
 7.85e-09,
*Elastic
210000., 0.3
*Material, name=S355JR
*Density
 7.85e-09,
*Elastic
210000., 0.3
** 
** BOUNDARY CONDITIONS
** 
** Name: GroundFixity Type: Symmetry/Antisymmetry/Encastre
*Boundary
BASES, ENCASTRE
** ----------------------------------------------------------------
** 
** STEP: D
** 
*Step, name=D, nlgeom=NO
*Static
1., 1., 1e-05, 1.
** 
** LOADS
** 
** Name: D_Contact_1   Type: Concentrated force
*Cload, op=NEW
CONTACT_ROW_1, 2, 0.
CONTACT_ROW_1, 3, -126.993
** Name: D_Contact_2   Type: Concentrated force
*Cload, op=NEW
CONTACT_ROW_2, 2, 0.
CONTACT_ROW_2, 3, -126.993
** Name: D_Contact_3   Type: Concentrated force
*Cload, op=NEW
CONTACT_ROW_3, 2, 0.
CONTACT_ROW_3, 3, -126.993
** Name: D_Contact_4   Type: Concentrated force
*Cload, op=NEW
CONTACT_ROW_4, 2, 0.
CONTACT_ROW_4, 3, -126.993
** Name: D_SteelGravity   Type: Gravity
*Dload, op=NEW
, GRAV, 9810., 0., 0., -1.
** 
** OUTPUT REQUESTS
** 
*Restart, write, frequency=0
** 
** FIELD OUTPUT: Nodal
** 
*Output, field, frequency=99999
*Node Output
RF, RM, U
** 
** FIELD OUTPUT: Section_P2
** 
*Element Output, elset=FRAME.P2, directions=YES
1, 2, 3, 4, 5, 6, 7, 8, 9, 10, 11
S, SF
** 
** FIELD OUTPUT: Section_P3
** 
*Element Output, elset=FRAME.P3, directions=YES
1, 2, 3, 4, 5, 6, 7, 8, 9, 10, 11
S, SF
** 
** FIELD OUTPUT: Section_P4
** 
*Element Output, elset=FRAME.P4, directions=YES
1, 2, 3, 4, 5, 6, 7, 8, 9, 10, 11
S, SF
** 
** FIELD OUTPUT: Section_P5
** 
*Element Output, elset=FRAME.P5, directions=YES
1, 2, 3, 4, 5, 6, 7, 8, 9, 10, 11
S, SF
** 
** FIELD OUTPUT: Section_P6
** 
*Element Output, elset=FRAME.P6, directions=YES
1, 2, 3, 4, 5, 6, 7
S, SF
** 
** HISTORY OUTPUT: Energy
** 
*Output, history
*Energy Output
ALLSE, ALLWK
*End Step
** ----------------------------------------------------------------
** 
** STEP: S
** 
*Step, name=S, nlgeom=NO
*Static
1., 1., 1e-05, 1.
** 
** LOADS
** 
** Name: D_Contact_1   Type: Concentrated force
*Cload, op=NEW
** Name: D_Contact_2   Type: Concentrated force
*Cload, op=NEW
** Name: D_Contact_3   Type: Concentrated force
*Cload, op=NEW
** Name: D_Contact_4   Type: Concentrated force
*Cload, op=NEW
** Name: D_SteelGravity   Type: Gravity
*Dload, op=NEW
** Name: S_Contact_1   Type: Concentrated force
*Cload, op=NEW
CONTACT_ROW_1, 2, 0.
CONTACT_ROW_1, 3, -733.2
** Name: S_Contact_2   Type: Concentrated force
*Cload, op=NEW
CONTACT_ROW_2, 2, 0.
CONTACT_ROW_2, 3, -733.2
** Name: S_Contact_3   Type: Concentrated force
*Cload, op=NEW
CONTACT_ROW_3, 2, 0.
CONTACT_ROW_3, 3, -733.2
** Name: S_Contact_4   Type: Concentrated force
*Cload, op=NEW
CONTACT_ROW_4, 2, 0.
CONTACT_ROW_4, 3, -733.2
** 
** OUTPUT REQUESTS
** 
*Restart, write, frequency=0
** 
** FIELD OUTPUT: Nodal
** 
*Output, field, frequency=99999
*Node Output
RF, RM, U
** 
** FIELD OUTPUT: Section_P2
** 
*Element Output, elset=FRAME.P2, directions=YES
1, 2, 3, 4, 5, 6, 7, 8, 9, 10, 11
S, SF
** 
** FIELD OUTPUT: Section_P3
** 
*Element Output, elset=FRAME.P3, directions=YES
1, 2, 3, 4, 5, 6, 7, 8, 9, 10, 11
S, SF
** 
** FIELD OUTPUT: Section_P4
** 
*Element Output, elset=FRAME.P4, directions=YES
1, 2, 3, 4, 5, 6, 7, 8, 9, 10, 11
S, SF
** 
** FIELD OUTPUT: Section_P5
** 
*Element Output, elset=FRAME.P5, directions=YES
1, 2, 3, 4, 5, 6, 7, 8, 9, 10, 11
S, SF
** 
** FIELD OUTPUT: Section_P6
** 
*Element Output, elset=FRAME.P6, directions=YES
1, 2, 3, 4, 5, 6, 7
S, SF
** 
** HISTORY OUTPUT: Energy
** 
*Output, history
*Energy Output
ALLSE, ALLWK
*End Step
** ----------------------------------------------------------------
** 
** STEP: W
** 
*Step, name=W, nlgeom=NO
*Static
1., 1., 1e-05, 1.
** 
** LOADS
** 
** Name: S_Contact_1   Type: Concentrated force
*Cload, op=NEW
** Name: S_Contact_2   Type: Concentrated force
*Cload, op=NEW
** Name: S_Contact_3   Type: Concentrated force
*Cload, op=NEW
** Name: S_Contact_4   Type: Concentrated force
*Cload, op=NEW
** Name: W_Contact_1   Type: Concentrated force
*Cload, op=NEW
CONTACT_ROW_1, 2, 35.556
CONTACT_ROW_1, 3, -76.2707
** Name: W_Contact_2   Type: Concentrated force
*Cload, op=NEW
CONTACT_ROW_2, 2, 35.556
CONTACT_ROW_2, 3, -76.2707
** Name: W_Contact_3   Type: Concentrated force
*Cload, op=NEW
CONTACT_ROW_3, 2, 35.556
CONTACT_ROW_3, 3, -76.2707
** Name: W_Contact_4   Type: Concentrated force
*Cload, op=NEW
CONTACT_ROW_4, 2, 35.556
CONTACT_ROW_4, 3, -76.2707
** 
** OUTPUT REQUESTS
** 
*Restart, write, frequency=0
** 
** FIELD OUTPUT: Nodal
** 
*Output, field, frequency=99999
*Node Output
RF, RM, U
** 
** FIELD OUTPUT: Section_P2
** 
*Element Output, elset=FRAME.P2, directions=YES
1, 2, 3, 4, 5, 6, 7, 8, 9, 10, 11
S, SF
** 
** FIELD OUTPUT: Section_P3
** 
*Element Output, elset=FRAME.P3, directions=YES
1, 2, 3, 4, 5, 6, 7, 8, 9, 10, 11
S, SF
** 
** FIELD OUTPUT: Section_P4
** 
*Element Output, elset=FRAME.P4, directions=YES
1, 2, 3, 4, 5, 6, 7, 8, 9, 10, 11
S, SF
** 
** FIELD OUTPUT: Section_P5
** 
*Element Output, elset=FRAME.P5, directions=YES
1, 2, 3, 4, 5, 6, 7, 8, 9, 10, 11
S, SF
** 
** FIELD OUTPUT: Section_P6
** 
*Element Output, elset=FRAME.P6, directions=YES
1, 2, 3, 4, 5, 6, 7
S, SF
** 
** HISTORY OUTPUT: Energy
** 
*Output, history
*Energy Output
ALLSE, ALLWK
*End Step
** ----------------------------------------------------------------
** 
** STEP: D_07S
** 
*Step, name=D_07S, nlgeom=NO
*Static
1., 1., 1e-05, 1.
** 
** LOADS
** 
** Name: D_07S_Contact_1   Type: Concentrated force
*Cload, op=NEW
CONTACT_ROW_1, 2, 0.
CONTACT_ROW_1, 3, -640.233
** Name: D_07S_Contact_2   Type: Concentrated force
*Cload, op=NEW
CONTACT_ROW_2, 2, 0.
CONTACT_ROW_2, 3, -640.233
** Name: D_07S_Contact_3   Type: Concentrated force
*Cload, op=NEW
CONTACT_ROW_3, 2, 0.
CONTACT_ROW_3, 3, -640.233
** Name: D_07S_Contact_4   Type: Concentrated force
*Cload, op=NEW
CONTACT_ROW_4, 2, 0.
CONTACT_ROW_4, 3, -640.233
** Name: D_07S_SteelGravity   Type: Gravity
*Dload, op=NEW
, GRAV, 9810., 0., 0., -1.
** Name: W_Contact_1   Type: Concentrated force
*Cload, op=NEW
** Name: W_Contact_2   Type: Concentrated force
*Cload, op=NEW
** Name: W_Contact_3   Type: Concentrated force
*Cload, op=NEW
** Name: W_Contact_4   Type: Concentrated force
*Cload, op=NEW
** 
** OUTPUT REQUESTS
** 
*Restart, write, frequency=0
** 
** FIELD OUTPUT: Nodal
** 
*Output, field, frequency=99999
*Node Output
RF, RM, U
** 
** FIELD OUTPUT: Section_P2
** 
*Element Output, elset=FRAME.P2, directions=YES
1, 2, 3, 4, 5, 6, 7, 8, 9, 10, 11
S, SF
** 
** FIELD OUTPUT: Section_P3
** 
*Element Output, elset=FRAME.P3, directions=YES
1, 2, 3, 4, 5, 6, 7, 8, 9, 10, 11
S, SF
** 
** FIELD OUTPUT: Section_P4
** 
*Element Output, elset=FRAME.P4, directions=YES
1, 2, 3, 4, 5, 6, 7, 8, 9, 10, 11
S, SF
** 
** FIELD OUTPUT: Section_P5
** 
*Element Output, elset=FRAME.P5, directions=YES
1, 2, 3, 4, 5, 6, 7, 8, 9, 10, 11
S, SF
** 
** FIELD OUTPUT: Section_P6
** 
*Element Output, elset=FRAME.P6, directions=YES
1, 2, 3, 4, 5, 6, 7
S, SF
** 
** HISTORY OUTPUT: Energy
** 
*Output, history
*Energy Output
ALLSE, ALLWK
*End Step
** ----------------------------------------------------------------
** 
** STEP: D_S
** 
*Step, name=D_S, nlgeom=NO
*Static
1., 1., 1e-05, 1.
** 
** LOADS
** 
** Name: D_07S_Contact_1   Type: Concentrated force
*Cload, op=NEW
** Name: D_07S_Contact_2   Type: Concentrated force
*Cload, op=NEW
** Name: D_07S_Contact_3   Type: Concentrated force
*Cload, op=NEW
** Name: D_07S_Contact_4   Type: Concentrated force
*Cload, op=NEW
** Name: D_07S_SteelGravity   Type: Gravity
*Dload, op=NEW
** Name: D_S_Contact_1   Type: Concentrated force
*Cload, op=NEW
CONTACT_ROW_1, 2, 0.
CONTACT_ROW_1, 3, -860.193
** Name: D_S_Contact_2   Type: Concentrated force
*Cload, op=NEW
CONTACT_ROW_2, 2, 0.
CONTACT_ROW_2, 3, -860.193
** Name: D_S_Contact_3   Type: Concentrated force
*Cload, op=NEW
CONTACT_ROW_3, 2, 0.
CONTACT_ROW_3, 3, -860.193
** Name: D_S_Contact_4   Type: Concentrated force
*Cload, op=NEW
CONTACT_ROW_4, 2, 0.
CONTACT_ROW_4, 3, -860.193
** Name: D_S_SteelGravity   Type: Gravity
*Dload, op=NEW
, GRAV, 9810., 0., 0., -1.
** 
** OUTPUT REQUESTS
** 
*Restart, write, frequency=0
** 
** FIELD OUTPUT: Nodal
** 
*Output, field, frequency=99999
*Node Output
RF, RM, U
** 
** FIELD OUTPUT: Section_P2
** 
*Element Output, elset=FRAME.P2, directions=YES
1, 2, 3, 4, 5, 6, 7, 8, 9, 10, 11
S, SF
** 
** FIELD OUTPUT: Section_P3
** 
*Element Output, elset=FRAME.P3, directions=YES
1, 2, 3, 4, 5, 6, 7, 8, 9, 10, 11
S, SF
** 
** FIELD OUTPUT: Section_P4
** 
*Element Output, elset=FRAME.P4, directions=YES
1, 2, 3, 4, 5, 6, 7, 8, 9, 10, 11
S, SF
** 
** FIELD OUTPUT: Section_P5
** 
*Element Output, elset=FRAME.P5, directions=YES
1, 2, 3, 4, 5, 6, 7, 8, 9, 10, 11
S, SF
** 
** FIELD OUTPUT: Section_P6
** 
*Element Output, elset=FRAME.P6, directions=YES
1, 2, 3, 4, 5, 6, 7
S, SF
** 
** HISTORY OUTPUT: Energy
** 
*Output, history
*Energy Output
ALLSE, ALLWK
*End Step
** ----------------------------------------------------------------
** 
** STEP: D_S_W
** 
*Step, name=D_S_W, nlgeom=NO
*Static
1., 1., 1e-05, 1.
** 
** LOADS
** 
** Name: D_S_Contact_1   Type: Concentrated force
*Cload, op=NEW
** Name: D_S_Contact_2   Type: Concentrated force
*Cload, op=NEW
** Name: D_S_Contact_3   Type: Concentrated force
*Cload, op=NEW
** Name: D_S_Contact_4   Type: Concentrated force
*Cload, op=NEW
** Name: D_S_SteelGravity   Type: Gravity
*Dload, op=NEW
** Name: D_S_W_Contact_1   Type: Concentrated force
*Cload, op=NEW
CONTACT_ROW_1, 2, 35.556
CONTACT_ROW_1, 3, -936.463
** Name: D_S_W_Contact_2   Type: Concentrated force
*Cload, op=NEW
CONTACT_ROW_2, 2, 35.556
CONTACT_ROW_2, 3, -936.463
** Name: D_S_W_Contact_3   Type: Concentrated force
*Cload, op=NEW
CONTACT_ROW_3, 2, 35.556
CONTACT_ROW_3, 3, -936.463
** Name: D_S_W_Contact_4   Type: Concentrated force
*Cload, op=NEW
CONTACT_ROW_4, 2, 35.556
CONTACT_ROW_4, 3, -936.463
** Name: D_S_W_SteelGravity   Type: Gravity
*Dload, op=NEW
, GRAV, 9810., 0., 0., -1.
** 
** OUTPUT REQUESTS
** 
*Restart, write, frequency=0
** 
** FIELD OUTPUT: Nodal
** 
*Output, field, frequency=99999
*Node Output
RF, RM, U
** 
** FIELD OUTPUT: Section_P2
** 
*Element Output, elset=FRAME.P2, directions=YES
1, 2, 3, 4, 5, 6, 7, 8, 9, 10, 11
S, SF
** 
** FIELD OUTPUT: Section_P3
** 
*Element Output, elset=FRAME.P3, directions=YES
1, 2, 3, 4, 5, 6, 7, 8, 9, 10, 11
S, SF
** 
** FIELD OUTPUT: Section_P4
** 
*Element Output, elset=FRAME.P4, directions=YES
1, 2, 3, 4, 5, 6, 7, 8, 9, 10, 11
S, SF
** 
** FIELD OUTPUT: Section_P5
** 
*Element Output, elset=FRAME.P5, directions=YES
1, 2, 3, 4, 5, 6, 7, 8, 9, 10, 11
S, SF
** 
** FIELD OUTPUT: Section_P6
** 
*Element Output, elset=FRAME.P6, directions=YES
1, 2, 3, 4, 5, 6, 7
S, SF
** 
** HISTORY OUTPUT: Energy
** 
*Output, history
*Energy Output
ALLSE, ALLWK
*End Step
** ----------------------------------------------------------------
** 
** STEP: D_S_mW
** 
*Step, name=D_S_mW, nlgeom=NO
*Static
1., 1., 1e-05, 1.
** 
** LOADS
** 
** Name: D_S_W_Contact_1   Type: Concentrated force
*Cload, op=NEW
** Name: D_S_W_Contact_2   Type: Concentrated force
*Cload, op=NEW
** Name: D_S_W_Contact_3   Type: Concentrated force
*Cload, op=NEW
** Name: D_S_W_Contact_4   Type: Concentrated force
*Cload, op=NEW
** Name: D_S_W_SteelGravity   Type: Gravity
*Dload, op=NEW
** Name: D_S_mW_Contact_1   Type: Concentrated force
*Cload, op=NEW
CONTACT_ROW_1, 2, -35.556
CONTACT_ROW_1, 3, -783.922
** Name: D_S_mW_Contact_2   Type: Concentrated force
*Cload, op=NEW
CONTACT_ROW_2, 2, -35.556
CONTACT_ROW_2, 3, -783.922
** Name: D_S_mW_Contact_3   Type: Concentrated force
*Cload, op=NEW
CONTACT_ROW_3, 2, -35.556
CONTACT_ROW_3, 3, -783.922
** Name: D_S_mW_Contact_4   Type: Concentrated force
*Cload, op=NEW
CONTACT_ROW_4, 2, -35.556
CONTACT_ROW_4, 3, -783.922
** Name: D_S_mW_SteelGravity   Type: Gravity
*Dload, op=NEW
, GRAV, 9810., 0., 0., -1.
** 
** OUTPUT REQUESTS
** 
*Restart, write, frequency=0
** 
** FIELD OUTPUT: Nodal
** 
*Output, field, frequency=99999
*Node Output
RF, RM, U
** 
** FIELD OUTPUT: Section_P2
** 
*Element Output, elset=FRAME.P2, directions=YES
1, 2, 3, 4, 5, 6, 7, 8, 9, 10, 11
S, SF
** 
** FIELD OUTPUT: Section_P3
** 
*Element Output, elset=FRAME.P3, directions=YES
1, 2, 3, 4, 5, 6, 7, 8, 9, 10, 11
S, SF
** 
** FIELD OUTPUT: Section_P4
** 
*Element Output, elset=FRAME.P4, directions=YES
1, 2, 3, 4, 5, 6, 7, 8, 9, 10, 11
S, SF
** 
** FIELD OUTPUT: Section_P5
** 
*Element Output, elset=FRAME.P5, directions=YES
1, 2, 3, 4, 5, 6, 7, 8, 9, 10, 11
S, SF
** 
** FIELD OUTPUT: Section_P6
** 
*Element Output, elset=FRAME.P6, directions=YES
1, 2, 3, 4, 5, 6, 7
S, SF
** 
** HISTORY OUTPUT: Energy
** 
*Output, history
*Energy Output
ALLSE, ALLWK
*End Step
** ----------------------------------------------------------------
** 
** STEP: C09D_W
** 
*Step, name=C09D_W, nlgeom=NO
*Static
1., 1., 1e-05, 1.
** 
** LOADS
** 
** Name: C09D_W_Contact_1   Type: Concentrated force
*Cload, op=NEW
CONTACT_ROW_1, 2, 35.556
CONTACT_ROW_1, 3, -190.564
** Name: C09D_W_Contact_2   Type: Concentrated force
*Cload, op=NEW
CONTACT_ROW_2, 2, 35.556
CONTACT_ROW_2, 3, -190.564
** Name: C09D_W_Contact_3   Type: Concentrated force
*Cload, op=NEW
CONTACT_ROW_3, 2, 35.556
CONTACT_ROW_3, 3, -190.564
** Name: C09D_W_Contact_4   Type: Concentrated force
*Cload, op=NEW
CONTACT_ROW_4, 2, 35.556
CONTACT_ROW_4, 3, -190.564
** Name: C09D_W_SteelGravity   Type: Gravity
*Dload, op=NEW
, GRAV, 8829., 0., 0., -1.
** Name: D_S_mW_Contact_1   Type: Concentrated force
*Cload, op=NEW
** Name: D_S_mW_Contact_2   Type: Concentrated force
*Cload, op=NEW
** Name: D_S_mW_Contact_3   Type: Concentrated force
*Cload, op=NEW
** Name: D_S_mW_Contact_4   Type: Concentrated force
*Cload, op=NEW
** Name: D_S_mW_SteelGravity   Type: Gravity
*Dload, op=NEW
** 
** OUTPUT REQUESTS
** 
*Restart, write, frequency=0
** 
** FIELD OUTPUT: Nodal
** 
*Output, field, frequency=99999
*Node Output
RF, RM, U
** 
** FIELD OUTPUT: Section_P2
** 
*Element Output, elset=FRAME.P2, directions=YES
1, 2, 3, 4, 5, 6, 7, 8, 9, 10, 11
S, SF
** 
** FIELD OUTPUT: Section_P3
** 
*Element Output, elset=FRAME.P3, directions=YES
1, 2, 3, 4, 5, 6, 7, 8, 9, 10, 11
S, SF
** 
** FIELD OUTPUT: Section_P4
** 
*Element Output, elset=FRAME.P4, directions=YES
1, 2, 3, 4, 5, 6, 7, 8, 9, 10, 11
S, SF
** 
** FIELD OUTPUT: Section_P5
** 
*Element Output, elset=FRAME.P5, directions=YES
1, 2, 3, 4, 5, 6, 7, 8, 9, 10, 11
S, SF
** 
** FIELD OUTPUT: Section_P6
** 
*Element Output, elset=FRAME.P6, directions=YES
1, 2, 3, 4, 5, 6, 7
S, SF
** 
** HISTORY OUTPUT: Energy
** 
*Output, history
*Energy Output
ALLSE, ALLWK
*End Step
** ----------------------------------------------------------------
** 
** STEP: C09D_mW
** 
*Step, name=C09D_mW, nlgeom=NO
*Static
1., 1., 1e-05, 1.
** 
** LOADS
** 
** Name: C09D_W_Contact_1   Type: Concentrated force
*Cload, op=NEW
** Name: C09D_W_Contact_2   Type: Concentrated force
*Cload, op=NEW
** Name: C09D_W_Contact_3   Type: Concentrated force
*Cload, op=NEW
** Name: C09D_W_Contact_4   Type: Concentrated force
*Cload, op=NEW
** Name: C09D_W_SteelGravity   Type: Gravity
*Dload, op=NEW
** Name: C09D_mW_Contact_1   Type: Concentrated force
*Cload, op=NEW
CONTACT_ROW_1, 2, -35.556
CONTACT_ROW_1, 3, -38.0225
** Name: C09D_mW_Contact_2   Type: Concentrated force
*Cload, op=NEW
CONTACT_ROW_2, 2, -35.556
CONTACT_ROW_2, 3, -38.0225
** Name: C09D_mW_Contact_3   Type: Concentrated force
*Cload, op=NEW
CONTACT_ROW_3, 2, -35.556
CONTACT_ROW_3, 3, -38.0225
** Name: C09D_mW_Contact_4   Type: Concentrated force
*Cload, op=NEW
CONTACT_ROW_4, 2, -35.556
CONTACT_ROW_4, 3, -38.0225
** Name: C09D_mW_SteelGravity   Type: Gravity
*Dload, op=NEW
, GRAV, 8829., 0., 0., -1.
** 
** OUTPUT REQUESTS
** 
*Restart, write, frequency=0
** 
** FIELD OUTPUT: Nodal
** 
*Output, field, frequency=99999
*Node Output
RF, RM, U
** 
** FIELD OUTPUT: Section_P2
** 
*Element Output, elset=FRAME.P2, directions=YES
1, 2, 3, 4, 5, 6, 7, 8, 9, 10, 11
S, SF
** 
** FIELD OUTPUT: Section_P3
** 
*Element Output, elset=FRAME.P3, directions=YES
1, 2, 3, 4, 5, 6, 7, 8, 9, 10, 11
S, SF
** 
** FIELD OUTPUT: Section_P4
** 
*Element Output, elset=FRAME.P4, directions=YES
1, 2, 3, 4, 5, 6, 7, 8, 9, 10, 11
S, SF
** 
** FIELD OUTPUT: Section_P5
** 
*Element Output, elset=FRAME.P5, directions=YES
1, 2, 3, 4, 5, 6, 7, 8, 9, 10, 11
S, SF
** 
** FIELD OUTPUT: Section_P6
** 
*Element Output, elset=FRAME.P6, directions=YES
1, 2, 3, 4, 5, 6, 7
S, SF
** 
** HISTORY OUTPUT: Energy
** 
*Output, history
*Energy Output
ALLSE, ALLWK
*End Step
