*Heading
 Solar support; see assumptions and run metadata; N mm tonne s
** Job name: Solar_010_mesh50 Model name: SolarSupport
** Generated by: Abaqus/CAE 2024
*Preprint, echo=NO, model=NO, history=NO, contact=NO
**
** PARTS
**
*Part, name=SteelFrame
*Node
      1,   17735.5449,   2433.50488,   2186.45581
      2,       18148.,   2433.50488,   2186.45581
      3,       18148.,   2888.94629,   2398.77441
      4,   16910.6367,   2433.50488,   2186.45581
      5,       18148.,   2134.36011,        2047.
      6,   16085.7275,   2433.50488,   2186.45581
      7,   15260.8184,   2433.50488,   2186.45581
      8,   14435.9092,   2433.50488,   2186.45581
      9,       13611.,   2433.50488,   2186.45581
     10,   12786.0908,   2433.50488,   2186.45581
     11,   11961.1816,   2433.50488,   2186.45581
     12,   11136.2725,   2433.50488,   2186.45581
     13,   10311.3633,   2433.50488,   2186.45581
     14,    9486.4541,   2433.50488,   2186.45581
     15,        9074.,   2433.50488,   2186.45581
     16,    8661.5459,   2433.50488,   2186.45581
     17,   7836.63623,   2433.50488,   2186.45581
     18,   7011.72705,   2433.50488,   2186.45581
     19,   6186.81836,   2433.50488,   2186.45581
     20,   5361.90918,   2433.50488,   2186.45581
     21,        4537.,   2433.50488,   2186.45581
     22,   3712.09082,   2433.50488,   2186.45581
     23,   2887.18188,   2433.50488,   2186.45581
     24,   2062.27271,   2433.50488,   2186.45581
     25,   1237.36365,   2433.50488,   2186.45581
     26,   412.454559,   2433.50488,   2186.45581
     27,           0.,   2433.50488,   2186.45581
     28,           0.,   2888.94629,   2398.77441
     29,       18148.,   1522.62158,    1761.8186
     30,       18148.,   611.738403,    1337.1814
     31,       18148.,           0.,        1052.
     32,       18148.,  -299.144806,   912.544128
     33,       18148.,  -754.586365,   700.225464
     34,       13611.,   2888.94629,   2398.77441
     35,       13611.,   2134.36011,        2047.
     36,       13611.,   1522.62158,    1761.8186
     37,       13611.,   611.738403,    1337.1814
     38,       13611.,           0.,        1052.
     39,       13611.,  -299.144806,   912.544128
     40,       13611.,  -754.586365,   700.225464
     41,        9074.,   2888.94629,   2398.77441
     42,        9074.,   2134.36011,        2047.
     43,        9074.,   1522.62158,    1761.8186
     44,        9074.,   611.738403,    1337.1814
     45,        9074.,           0.,        1052.
     46,        9074.,  -299.144806,   912.544128
     47,        9074.,  -754.586365,   700.225464
     48,        4537.,   2888.94629,   2398.77441
     49,        4537.,   2134.36011,        2047.
     50,        4537.,   1522.62158,    1761.8186
     51,        4537.,   611.738403,    1337.1814
     52,        4537.,           0.,        1052.
     53,        4537.,  -299.144806,   912.544128
     54,        4537.,  -754.586365,   700.225464
     55,           0.,   2134.36011,        2047.
     56,           0.,   1522.62158,    1761.8186
     57,           0.,   611.738403,    1337.1814
     58,           0.,           0.,        1052.
     59,           0.,  -299.144806,   912.544128
     60,           0.,  -754.586365,   700.225464
     61,       18148.,   2134.36011,   416.769989
     62,       18148.,   2134.36011,           0.
     63,   17735.5449,   1522.62158,    1761.8186
     64,   16910.6367,   1522.62158,    1761.8186
     65,   16085.7275,   1522.62158,    1761.8186
     66,   15260.8184,   1522.62158,    1761.8186
     67,   14435.9092,   1522.62158,    1761.8186
     68,   12786.0908,   1522.62158,    1761.8186
     69,   11961.1816,   1522.62158,    1761.8186
     70,   11136.2725,   1522.62158,    1761.8186
     71,   10311.3633,   1522.62158,    1761.8186
     72,    9486.4541,   1522.62158,    1761.8186
     73,    8661.5459,   1522.62158,    1761.8186
     74,   7836.63623,   1522.62158,    1761.8186
     75,   7011.72705,   1522.62158,    1761.8186
     76,   6186.81836,   1522.62158,    1761.8186
     77,   5361.90918,   1522.62158,    1761.8186
     78,   3712.09082,   1522.62158,    1761.8186
     79,   2887.18188,   1522.62158,    1761.8186
     80,   2062.27271,   1522.62158,    1761.8186
     81,   1237.36365,   1522.62158,    1761.8186
     82,   412.454559,   1522.62158,    1761.8186
     83,   17735.5449,   611.738403,    1337.1814
     84,   16910.6367,   611.738403,    1337.1814
     85,   16085.7275,   611.738403,    1337.1814
     86,   15260.8184,   611.738403,    1337.1814
     87,   14435.9092,   611.738403,    1337.1814
     88,   12786.0908,   611.738403,    1337.1814
     89,   11961.1816,   611.738403,    1337.1814
     90,   11136.2725,   611.738403,    1337.1814
     91,   10311.3633,   611.738403,    1337.1814
     92,    9486.4541,   611.738403,    1337.1814
     93,    8661.5459,   611.738403,    1337.1814
     94,   7836.63623,   611.738403,    1337.1814
     95,   7011.72705,   611.738403,    1337.1814
     96,   6186.81836,   611.738403,    1337.1814
     97,   5361.90918,   611.738403,    1337.1814
     98,   3712.09082,   611.738403,    1337.1814
     99,   2887.18188,   611.738403,    1337.1814
    100,   2062.27271,   611.738403,    1337.1814
    101,   1237.36365,   611.738403,    1337.1814
    102,   412.454559,   611.738403,    1337.1814
    103,       18148.,           0.,         927.
    104,       18148.,           0.,           0.
    105,   17735.5449,  -299.144806,   912.544128
    106,   16910.6367,  -299.144806,   912.544128
    107,   16085.7275,  -299.144806,   912.544128
    108,   15260.8184,  -299.144806,   912.544128
    109,   14435.9092,  -299.144806,   912.544128
    110,   12786.0908,  -299.144806,   912.544128
    111,   11961.1816,  -299.144806,   912.544128
    112,   11136.2725,  -299.144806,   912.544128
    113,   10311.3633,  -299.144806,   912.544128
    114,    9486.4541,  -299.144806,   912.544128
    115,    8661.5459,  -299.144806,   912.544128
    116,   7836.63623,  -299.144806,   912.544128
    117,   7011.72705,  -299.144806,   912.544128
    118,   6186.81836,  -299.144806,   912.544128
    119,   5361.90918,  -299.144806,   912.544128
    120,   3712.09082,  -299.144806,   912.544128
    121,   2887.18188,  -299.144806,   912.544128
    122,   2062.27271,  -299.144806,   912.544128
    123,   1237.36365,  -299.144806,   912.544128
    124,   412.454559,  -299.144806,   912.544128
    125,       13611.,   2134.36011,   416.769989
    126,       13611.,   2134.36011,           0.
    127,       13611.,           0.,         927.
    128,       13611.,           0.,           0.
    129,        9074.,   2134.36011,   416.769989
    130,        9074.,   2134.36011,           0.
    131,        9074.,           0.,         927.
    132,        9074.,           0.,           0.
    133,        4537.,   2134.36011,   416.769989
    134,        4537.,   2134.36011,           0.
    135,        4537.,           0.,         927.
    136,        4537.,           0.,           0.
    137,           0.,   2134.36011,   416.769989
    138,           0.,   2134.36011,           0.
    139,           0.,           0.,         927.
    140,           0.,           0.,           0.
    141,   17787.1016,   2433.50488,   2186.45581
    142,   17838.6582,   2433.50488,   2186.45581
    143,   17890.2168,   2433.50488,   2186.45581
    144,   17941.7734,   2433.50488,   2186.45581
    145,   17993.3301,   2433.50488,   2186.45581
    146,   18044.8867,   2433.50488,   2186.45581
    147,   18096.4434,   2433.50488,   2186.45581
    148,       18148.,   2479.04907,   2207.68774
    149,       18148.,   2524.59302,   2228.91968
    150,       18148.,   2570.13721,   2250.15137
    151,       18148.,    2615.6814,    2271.3833
    152,       18148.,   2661.22559,   2292.61523
    153,       18148.,   2706.76978,   2313.84717
    154,       18148.,   2752.31396,   2335.07886
    155,       18148.,   2797.85815,   2356.31079
    156,       18148.,   2843.40234,   2377.54272
    157,   16962.1934,   2433.50488,   2186.45581
    158,     17013.75,   2433.50488,   2186.45581
    159,   17065.3066,   2433.50488,   2186.45581
    160,   17116.8633,   2433.50488,   2186.45581
    161,   17168.4199,   2433.50488,   2186.45581
    162,   17219.9766,   2433.50488,   2186.45581
    163,   17271.5332,   2433.50488,   2186.45581
    164,   17323.0918,   2433.50488,   2186.45581
    165,   17374.6484,   2433.50488,   2186.45581
    166,   17426.2051,   2433.50488,   2186.45581
    167,   17477.7617,   2433.50488,   2186.45581
    168,   17529.3184,   2433.50488,   2186.45581
    169,    17580.875,   2433.50488,   2186.45581
    170,   17632.4316,   2433.50488,   2186.45581
    171,   17683.9883,   2433.50488,   2186.45581
    172,       18148.,   2177.09497,   2066.92236
    173,       18148.,   2219.82983,   2086.84448
    174,       18148.,   2262.56494,   2106.76685
    175,       18148.,    2305.2998,   2126.68896
    176,       18148.,   2348.03491,   2146.61133
    177,       18148.,   2390.76978,   2166.53369
    178,   16137.2842,   2433.50488,   2186.45581
    179,   16188.8408,   2433.50488,   2186.45581
    180,   16240.3975,   2433.50488,   2186.45581
    181,   16291.9541,   2433.50488,   2186.45581
    182,   16343.5117,   2433.50488,   2186.45581
    183,   16395.0684,   2433.50488,   2186.45581
    184,    16446.625,   2433.50488,   2186.45581
    185,   16498.1816,   2433.50488,   2186.45581
    186,   16549.7383,   2433.50488,   2186.45581
    187,   16601.2949,   2433.50488,   2186.45581
    188,   16652.8516,   2433.50488,   2186.45581
    189,   16704.4082,   2433.50488,   2186.45581
    190,   16755.9668,   2433.50488,   2186.45581
    191,   16807.5234,   2433.50488,   2186.45581
    192,   16859.0801,   2433.50488,   2186.45581
    193,    15312.375,   2433.50488,   2186.45581
    194,   15363.9316,   2433.50488,   2186.45581
    195,   15415.4883,   2433.50488,   2186.45581
    196,   15467.0459,   2433.50488,   2186.45581
    197,   15518.6025,   2433.50488,   2186.45581
    198,   15570.1592,   2433.50488,   2186.45581
    199,   15621.7158,   2433.50488,   2186.45581
    200,   15673.2725,   2433.50488,   2186.45581
    201,   15724.8291,   2433.50488,   2186.45581
    202,   15776.3867,   2433.50488,   2186.45581
    203,   15827.9434,   2433.50488,   2186.45581
    204,      15879.5,   2433.50488,   2186.45581
    205,   15931.0566,   2433.50488,   2186.45581
    206,   15982.6133,   2433.50488,   2186.45581
    207,   16034.1709,   2433.50488,   2186.45581
    208,   14487.4658,   2433.50488,   2186.45581
    209,   14539.0225,   2433.50488,   2186.45581
    210,   14590.5791,   2433.50488,   2186.45581
    211,   14642.1367,   2433.50488,   2186.45581
    212,   14693.6934,   2433.50488,   2186.45581
    213,     14745.25,   2433.50488,   2186.45581
    214,   14796.8066,   2433.50488,   2186.45581
    215,   14848.3633,   2433.50488,   2186.45581
    216,   14899.9209,   2433.50488,   2186.45581
    217,   14951.4775,   2433.50488,   2186.45581
    218,   15003.0342,   2433.50488,   2186.45581
    219,   15054.5908,   2433.50488,   2186.45581
    220,   15106.1475,   2433.50488,   2186.45581
    221,   15157.7041,   2433.50488,   2186.45581
    222,   15209.2617,   2433.50488,   2186.45581
    223,   13662.5566,   2433.50488,   2186.45581
    224,   13714.1133,   2433.50488,   2186.45581
    225,   13765.6709,   2433.50488,   2186.45581
    226,   13817.2275,   2433.50488,   2186.45581
    227,   13868.7842,   2433.50488,   2186.45581
    228,   13920.3408,   2433.50488,   2186.45581
    229,   13971.8975,   2433.50488,   2186.45581
    230,   14023.4541,   2433.50488,   2186.45581
    231,   14075.0117,   2433.50488,   2186.45581
    232,   14126.5684,   2433.50488,   2186.45581
    233,    14178.125,   2433.50488,   2186.45581
    234,   14229.6816,   2433.50488,   2186.45581
    235,   14281.2383,   2433.50488,   2186.45581
    236,   14332.7959,   2433.50488,   2186.45581
    237,   14384.3525,   2433.50488,   2186.45581
    238,   12837.6475,   2433.50488,   2186.45581
    239,   12889.2041,   2433.50488,   2186.45581
    240,   12940.7617,   2433.50488,   2186.45581
    241,   12992.3184,   2433.50488,   2186.45581
    242,    13043.875,   2433.50488,   2186.45581
    243,   13095.4316,   2433.50488,   2186.45581
    244,   13146.9883,   2433.50488,   2186.45581
    245,   13198.5459,   2433.50488,   2186.45581
    246,   13250.1025,   2433.50488,   2186.45581
    247,   13301.6592,   2433.50488,   2186.45581
    248,   13353.2158,   2433.50488,   2186.45581
    249,   13404.7725,   2433.50488,   2186.45581
    250,   13456.3291,   2433.50488,   2186.45581
    251,   13507.8867,   2433.50488,   2186.45581
    252,   13559.4434,   2433.50488,   2186.45581
    253,   12012.7383,   2433.50488,   2186.45581
    254,   12064.2959,   2433.50488,   2186.45581
    255,   12115.8525,   2433.50488,   2186.45581
    256,   12167.4092,   2433.50488,   2186.45581
    257,   12218.9658,   2433.50488,   2186.45581
    258,   12270.5225,   2433.50488,   2186.45581
    259,   12322.0791,   2433.50488,   2186.45581
    260,   12373.6367,   2433.50488,   2186.45581
    261,   12425.1934,   2433.50488,   2186.45581
    262,     12476.75,   2433.50488,   2186.45581
    263,   12528.3066,   2433.50488,   2186.45581
    264,   12579.8633,   2433.50488,   2186.45581
    265,   12631.4209,   2433.50488,   2186.45581
    266,   12682.9775,   2433.50488,   2186.45581
    267,   12734.5342,   2433.50488,   2186.45581
    268,   11187.8291,   2433.50488,   2186.45581
    269,   11239.3867,   2433.50488,   2186.45581
    270,   11290.9434,   2433.50488,   2186.45581
    271,      11342.5,   2433.50488,   2186.45581
    272,   11394.0566,   2433.50488,   2186.45581
    273,   11445.6133,   2433.50488,   2186.45581
    274,   11497.1709,   2433.50488,   2186.45581
    275,   11548.7275,   2433.50488,   2186.45581
    276,   11600.2842,   2433.50488,   2186.45581
    277,   11651.8408,   2433.50488,   2186.45581
    278,   11703.3975,   2433.50488,   2186.45581
    279,   11754.9541,   2433.50488,   2186.45581
    280,   11806.5117,   2433.50488,   2186.45581
    281,   11858.0684,   2433.50488,   2186.45581
    282,    11909.625,   2433.50488,   2186.45581
    283,   10362.9209,   2433.50488,   2186.45581
    284,   10414.4775,   2433.50488,   2186.45581
    285,   10466.0342,   2433.50488,   2186.45581
    286,   10517.5908,   2433.50488,   2186.45581
    287,   10569.1475,   2433.50488,   2186.45581
    288,   10620.7041,   2433.50488,   2186.45581
    289,   10672.2617,   2433.50488,   2186.45581
    290,   10723.8184,   2433.50488,   2186.45581
    291,    10775.375,   2433.50488,   2186.45581
    292,   10826.9316,   2433.50488,   2186.45581
    293,   10878.4883,   2433.50488,   2186.45581
    294,   10930.0459,   2433.50488,   2186.45581
    295,   10981.6025,   2433.50488,   2186.45581
    296,   11033.1592,   2433.50488,   2186.45581
    297,   11084.7158,   2433.50488,   2186.45581
    298,   9538.01172,   2433.50488,   2186.45581
    299,   9589.56836,   2433.50488,   2186.45581
    300,     9641.125,   2433.50488,   2186.45581
    301,   9692.68164,   2433.50488,   2186.45581
    302,   9744.23828,   2433.50488,   2186.45581
    303,    9795.7959,   2433.50488,   2186.45581
    304,   9847.35254,   2433.50488,   2186.45581
    305,   9898.90918,   2433.50488,   2186.45581
    306,   9950.46582,   2433.50488,   2186.45581
    307,   10002.0225,   2433.50488,   2186.45581
    308,   10053.5791,   2433.50488,   2186.45581
    309,   10105.1367,   2433.50488,   2186.45581
    310,   10156.6934,   2433.50488,   2186.45581
    311,     10208.25,   2433.50488,   2186.45581
    312,   10259.8066,   2433.50488,   2186.45581
    313,   9125.55664,   2433.50488,   2186.45581
    314,   9177.11328,   2433.50488,   2186.45581
    315,    9228.6709,   2433.50488,   2186.45581
    316,   9280.22754,   2433.50488,   2186.45581
    317,   9331.78418,   2433.50488,   2186.45581
    318,   9383.34082,   2433.50488,   2186.45581
    319,   9434.89746,   2433.50488,   2186.45581
    320,   8713.10254,   2433.50488,   2186.45581
    321,   8764.65918,   2433.50488,   2186.45581
    322,   8816.21582,   2433.50488,   2186.45581
    323,   8867.77246,   2433.50488,   2186.45581
    324,    8919.3291,   2433.50488,   2186.45581
    325,   8970.88672,   2433.50488,   2186.45581
    326,   9022.44336,   2433.50488,   2186.45581
    327,   7888.19336,   2433.50488,   2186.45581
    328,      7939.75,   2433.50488,   2186.45581
    329,   7991.30664,   2433.50488,   2186.45581
    330,   8042.86377,   2433.50488,   2186.45581
    331,   8094.42041,   2433.50488,   2186.45581
    332,   8145.97705,   2433.50488,   2186.45581
    333,   8197.53418,   2433.50488,   2186.45581
    334,   8249.09082,   2433.50488,   2186.45581
    335,   8300.64746,   2433.50488,   2186.45581
    336,    8352.2041,   2433.50488,   2186.45581
    337,   8403.76172,   2433.50488,   2186.45581
    338,   8455.31836,   2433.50488,   2186.45581
    339,     8506.875,   2433.50488,   2186.45581
    340,   8558.43164,   2433.50488,   2186.45581
    341,   8609.98828,   2433.50488,   2186.45581
    342,   7063.28418,   2433.50488,   2186.45581
    343,   7114.84082,   2433.50488,   2186.45581
    344,   7166.39795,   2433.50488,   2186.45581
    345,   7217.95459,   2433.50488,   2186.45581
    346,   7269.51123,   2433.50488,   2186.45581
    347,   7321.06836,   2433.50488,   2186.45581
    348,     7372.625,   2433.50488,   2186.45581
    349,   7424.18164,   2433.50488,   2186.45581
    350,   7475.73877,   2433.50488,   2186.45581
    351,   7527.29541,   2433.50488,   2186.45581
    352,   7578.85205,   2433.50488,   2186.45581
    353,   7630.40918,   2433.50488,   2186.45581
    354,   7681.96582,   2433.50488,   2186.45581
    355,   7733.52295,   2433.50488,   2186.45581
    356,   7785.07959,   2433.50488,   2186.45581
    357,     6238.375,   2433.50488,   2186.45581
    358,   6289.93164,   2433.50488,   2186.45581
    359,   6341.48877,   2433.50488,   2186.45581
    360,   6393.04541,   2433.50488,   2186.45581
    361,   6444.60205,   2433.50488,   2186.45581
    362,   6496.15918,   2433.50488,   2186.45581
    363,   6547.71582,   2433.50488,   2186.45581
    364,   6599.27295,   2433.50488,   2186.45581
    365,   6650.82959,   2433.50488,   2186.45581
    366,   6702.38623,   2433.50488,   2186.45581
    367,   6753.94336,   2433.50488,   2186.45581
    368,       6805.5,   2433.50488,   2186.45581
    369,   6857.05664,   2433.50488,   2186.45581
    370,   6908.61377,   2433.50488,   2186.45581
    371,   6960.17041,   2433.50488,   2186.45581
    372,   5413.46582,   2433.50488,   2186.45581
    373,   5465.02295,   2433.50488,   2186.45581
    374,   5516.57959,   2433.50488,   2186.45581
    375,   5568.13623,   2433.50488,   2186.45581
    376,   5619.69336,   2433.50488,   2186.45581
    377,      5671.25,   2433.50488,   2186.45581
    378,   5722.80664,   2433.50488,   2186.45581
    379,   5774.36377,   2433.50488,   2186.45581
    380,   5825.92041,   2433.50488,   2186.45581
    381,   5877.47705,   2433.50488,   2186.45581
    382,   5929.03418,   2433.50488,   2186.45581
    383,   5980.59082,   2433.50488,   2186.45581
    384,   6032.14795,   2433.50488,   2186.45581
    385,   6083.70459,   2433.50488,   2186.45581
    386,   6135.26123,   2433.50488,   2186.45581
    387,   4588.55664,   2433.50488,   2186.45581
    388,   4640.11377,   2433.50488,   2186.45581
    389,   4691.67041,   2433.50488,   2186.45581
    390,   4743.22705,   2433.50488,   2186.45581
    391,   4794.78418,   2433.50488,   2186.45581
    392,   4846.34082,   2433.50488,   2186.45581
    393,   4897.89795,   2433.50488,   2186.45581
    394,   4949.45459,   2433.50488,   2186.45581
    395,   5001.01123,   2433.50488,   2186.45581
    396,   5052.56836,   2433.50488,   2186.45581
    397,     5104.125,   2433.50488,   2186.45581
    398,   5155.68164,   2433.50488,   2186.45581
    399,   5207.23877,   2433.50488,   2186.45581
    400,   5258.79541,   2433.50488,   2186.45581
    401,   5310.35205,   2433.50488,   2186.45581
    402,   3763.64771,   2433.50488,   2186.45581
    403,   3815.20459,   2433.50488,   2186.45581
    404,   3866.76147,   2433.50488,   2186.45581
    405,   3918.31812,   2433.50488,   2186.45581
    406,     3969.875,   2433.50488,   2186.45581
    407,   4021.43188,   2433.50488,   2186.45581
    408,   4072.98853,   2433.50488,   2186.45581
    409,   4124.54541,   2433.50488,   2186.45581
    410,   4176.10205,   2433.50488,   2186.45581
    411,   4227.65918,   2433.50488,   2186.45581
    412,   4279.21582,   2433.50488,   2186.45581
    413,   4330.77295,   2433.50488,   2186.45581
    414,   4382.32959,   2433.50488,   2186.45581
    415,   4433.88623,   2433.50488,   2186.45581
    416,   4485.44336,   2433.50488,   2186.45581
    417,   2938.73853,   2433.50488,   2186.45581
    418,   2990.29541,   2433.50488,   2186.45581
    419,   3041.85229,   2433.50488,   2186.45581
    420,   3093.40918,   2433.50488,   2186.45581
    421,   3144.96582,   2433.50488,   2186.45581
    422,   3196.52271,   2433.50488,   2186.45581
    423,   3248.07959,   2433.50488,   2186.45581
    424,   3299.63647,   2433.50488,   2186.45581
    425,   3351.19312,   2433.50488,   2186.45581
    426,      3402.75,   2433.50488,   2186.45581
    427,   3454.30688,   2433.50488,   2186.45581
    428,   3505.86353,   2433.50488,   2186.45581
    429,   3557.42041,   2433.50488,   2186.45581
    430,   3608.97729,   2433.50488,   2186.45581
    431,   3660.53418,   2433.50488,   2186.45581
    432,   2113.82959,   2433.50488,   2186.45581
    433,   2165.38647,   2433.50488,   2186.45581
    434,   2216.94312,   2433.50488,   2186.45581
    435,       2268.5,   2433.50488,   2186.45581
    436,   2320.05688,   2433.50488,   2186.45581
    437,   2371.61353,   2433.50488,   2186.45581
    438,   2423.17041,   2433.50488,   2186.45581
    439,   2474.72729,   2433.50488,   2186.45581
    440,   2526.28418,   2433.50488,   2186.45581
    441,   2577.84082,   2433.50488,   2186.45581
    442,   2629.39771,   2433.50488,   2186.45581
    443,   2680.95459,   2433.50488,   2186.45581
    444,   2732.51147,   2433.50488,   2186.45581
    445,   2784.06812,   2433.50488,   2186.45581
    446,     2835.625,   2433.50488,   2186.45581
    447,   1288.92041,   2433.50488,   2186.45581
    448,   1340.47729,   2433.50488,   2186.45581
    449,   1392.03406,   2433.50488,   2186.45581
    450,   1443.59094,   2433.50488,   2186.45581
    451,   1495.14771,   2433.50488,   2186.45581
    452,   1546.70459,   2433.50488,   2186.45581
    453,   1598.26135,   2433.50488,   2186.45581
    454,   1649.81824,   2433.50488,   2186.45581
    455,     1701.375,   2433.50488,   2186.45581
    456,   1752.93176,   2433.50488,   2186.45581
    457,   1804.48865,   2433.50488,   2186.45581
    458,   1856.04541,   2433.50488,   2186.45581
    459,   1907.60229,   2433.50488,   2186.45581
    460,   1959.15906,   2433.50488,   2186.45581
    461,   2010.71594,   2433.50488,   2186.45581
    462,   464.011353,   2433.50488,   2186.45581
    463,   515.568176,   2433.50488,   2186.45581
    464,      567.125,   2433.50488,   2186.45581
    465,   618.681824,   2433.50488,   2186.45581
    466,   670.238647,   2433.50488,   2186.45581
    467,   721.795471,   2433.50488,   2186.45581
    468,   773.352295,   2433.50488,   2186.45581
    469,   824.909119,   2433.50488,   2186.45581
    470,   876.465881,   2433.50488,   2186.45581
    471,   928.022705,   2433.50488,   2186.45581
    472,   979.579529,   2433.50488,   2186.45581
    473,   1031.13635,   2433.50488,   2186.45581
    474,   1082.69324,   2433.50488,   2186.45581
    475,      1134.25,   2433.50488,   2186.45581
    476,   1185.80676,   2433.50488,   2186.45581
    477,   51.5568199,   2433.50488,   2186.45581
    478,    103.11364,   2433.50488,   2186.45581
    479,   154.670456,   2433.50488,   2186.45581
    480,    206.22728,   2433.50488,   2186.45581
    481,   257.784088,   2433.50488,   2186.45581
    482,   309.340912,   2433.50488,   2186.45581
    483,   360.897736,   2433.50488,   2186.45581
    484,           0.,   2479.04907,   2207.68774
    485,           0.,   2524.59302,   2228.91968
    486,           0.,   2570.13721,   2250.15137
    487,           0.,    2615.6814,    2271.3833
    488,           0.,   2661.22559,   2292.61523
    489,           0.,   2706.76978,   2313.84717
    490,           0.,   2752.31396,   2335.07886
    491,           0.,   2797.85815,   2356.31079
    492,           0.,   2843.40234,   2377.54272
    493,       18148.,   1569.67834,   1783.75562
    494,       18148.,   1616.73523,   1805.69263
    495,       18148.,   1663.79199,   1827.62976
    496,       18148.,   1710.84875,   1849.56677
    497,       18148.,   1757.90564,   1871.50378
    498,       18148.,    1804.9624,    1893.4408
    499,       18148.,   1852.01917,   1915.37781
    500,       18148.,   1899.07605,   1937.31482
    501,       18148.,   1946.13281,   1959.25183
    502,       18148.,   1993.18958,   1981.18896
    503,       18148.,   2040.24646,   2003.12598
    504,       18148.,   2087.30322,   2025.06299
    505,       18148.,   657.282532,   1358.41321
    506,       18148.,   702.826721,   1379.64514
    507,       18148.,   748.370911,   1400.87695
    508,       18148.,   793.915039,   1422.10876
    509,       18148.,   839.459229,    1443.3407
    510,       18148.,   885.003357,   1464.57251
    511,       18148.,   930.547546,   1485.80444
    512,       18148.,   976.091675,   1507.03625
    513,       18148.,   1021.63586,   1528.26819
    514,       18148.,   1067.18005,       1549.5
    515,       18148.,   1112.72412,   1570.73181
    516,       18148.,   1158.26831,   1591.96375
    517,       18148.,    1203.8125,   1613.19556
    518,       18148.,   1249.35669,   1634.42749
    519,       18148.,   1294.90076,    1655.6593
    520,       18148.,   1340.44495,   1676.89124
    521,       18148.,   1385.98914,   1698.12305
    522,       18148.,   1431.53333,   1719.35486
    523,       18148.,   1477.07739,   1740.58679
    524,       18148.,   47.0568008,   1073.93701
    525,       18148.,   94.1136017,   1095.87402
    526,       18148.,   141.170395,   1117.81104
    527,       18148.,   188.227203,   1139.74817
    528,       18148.,   235.283997,   1161.68518
    529,       18148.,    282.34079,   1183.62219
    530,       18148.,   329.397614,    1205.5592
    531,       18148.,   376.454407,   1227.49622
    532,       18148.,     423.5112,   1249.43323
    533,       18148.,   470.567993,   1271.37024
    534,       18148.,   517.624817,   1293.30737
    535,       18148.,    564.68158,   1315.24438
    536,       18148.,  -256.409821,    932.46637
    537,       18148.,   -213.67485,   952.388672
    538,       18148.,   -170.93988,   972.310913
    539,       18148.,   -128.20491,   992.233215
    540,       18148.,  -85.4699402,   1012.15546
    541,       18148.,  -42.7349701,   1032.07776
    542,       18148.,  -709.042236,   721.457336
    543,       18148.,  -663.498047,   742.689209
    544,       18148.,  -617.953918,   763.921082
    545,       18148.,  -572.409729,   785.152954
    546,       18148.,  -526.865601,   806.384827
    547,       18148.,  -481.321442,   827.616638
    548,       18148.,  -435.777283,   848.848511
    549,       18148.,  -390.233124,   870.080383
    550,       18148.,  -344.688965,   891.312256
    551,       13611.,   2479.04907,   2207.68774
    552,       13611.,   2524.59302,   2228.91968
    553,       13611.,   2570.13721,   2250.15137
    554,       13611.,    2615.6814,    2271.3833
    555,       13611.,   2661.22559,   2292.61523
    556,       13611.,   2706.76978,   2313.84717
    557,       13611.,   2752.31396,   2335.07886
    558,       13611.,   2797.85815,   2356.31079
    559,       13611.,   2843.40234,   2377.54272
    560,       13611.,   2177.09497,   2066.92236
    561,       13611.,   2219.82983,   2086.84448
    562,       13611.,   2262.56494,   2106.76685
    563,       13611.,    2305.2998,   2126.68896
    564,       13611.,   2348.03491,   2146.61133
    565,       13611.,   2390.76978,   2166.53369
    566,       13611.,   1569.67834,   1783.75562
    567,       13611.,   1616.73523,   1805.69263
    568,       13611.,   1663.79199,   1827.62976
    569,       13611.,   1710.84875,   1849.56677
    570,       13611.,   1757.90564,   1871.50378
    571,       13611.,    1804.9624,    1893.4408
    572,       13611.,   1852.01917,   1915.37781
    573,       13611.,   1899.07605,   1937.31482
    574,       13611.,   1946.13281,   1959.25183
    575,       13611.,   1993.18958,   1981.18896
    576,       13611.,   2040.24646,   2003.12598
    577,       13611.,   2087.30322,   2025.06299
    578,       13611.,   657.282532,   1358.41321
    579,       13611.,   702.826721,   1379.64514
    580,       13611.,   748.370911,   1400.87695
    581,       13611.,   793.915039,   1422.10876
    582,       13611.,   839.459229,    1443.3407
    583,       13611.,   885.003357,   1464.57251
    584,       13611.,   930.547546,   1485.80444
    585,       13611.,   976.091675,   1507.03625
    586,       13611.,   1021.63586,   1528.26819
    587,       13611.,   1067.18005,       1549.5
    588,       13611.,   1112.72412,   1570.73181
    589,       13611.,   1158.26831,   1591.96375
    590,       13611.,    1203.8125,   1613.19556
    591,       13611.,   1249.35669,   1634.42749
    592,       13611.,   1294.90076,    1655.6593
    593,       13611.,   1340.44495,   1676.89124
    594,       13611.,   1385.98914,   1698.12305
    595,       13611.,   1431.53333,   1719.35486
    596,       13611.,   1477.07739,   1740.58679
    597,       13611.,   47.0568008,   1073.93701
    598,       13611.,   94.1136017,   1095.87402
    599,       13611.,   141.170395,   1117.81104
    600,       13611.,   188.227203,   1139.74817
    601,       13611.,   235.283997,   1161.68518
    602,       13611.,    282.34079,   1183.62219
    603,       13611.,   329.397614,    1205.5592
    604,       13611.,   376.454407,   1227.49622
    605,       13611.,     423.5112,   1249.43323
    606,       13611.,   470.567993,   1271.37024
    607,       13611.,   517.624817,   1293.30737
    608,       13611.,    564.68158,   1315.24438
    609,       13611.,  -256.409821,    932.46637
    610,       13611.,   -213.67485,   952.388672
    611,       13611.,   -170.93988,   972.310913
    612,       13611.,   -128.20491,   992.233215
    613,       13611.,  -85.4699402,   1012.15546
    614,       13611.,  -42.7349701,   1032.07776
    615,       13611.,  -709.042236,   721.457336
    616,       13611.,  -663.498047,   742.689209
    617,       13611.,  -617.953918,   763.921082
    618,       13611.,  -572.409729,   785.152954
    619,       13611.,  -526.865601,   806.384827
    620,       13611.,  -481.321442,   827.616638
    621,       13611.,  -435.777283,   848.848511
    622,       13611.,  -390.233124,   870.080383
    623,       13611.,  -344.688965,   891.312256
    624,        9074.,   2479.04907,   2207.68774
    625,        9074.,   2524.59302,   2228.91968
    626,        9074.,   2570.13721,   2250.15137
    627,        9074.,    2615.6814,    2271.3833
    628,        9074.,   2661.22559,   2292.61523
    629,        9074.,   2706.76978,   2313.84717
    630,        9074.,   2752.31396,   2335.07886
    631,        9074.,   2797.85815,   2356.31079
    632,        9074.,   2843.40234,   2377.54272
    633,        9074.,   2177.09497,   2066.92236
    634,        9074.,   2219.82983,   2086.84448
    635,        9074.,   2262.56494,   2106.76685
    636,        9074.,    2305.2998,   2126.68896
    637,        9074.,   2348.03491,   2146.61133
    638,        9074.,   2390.76978,   2166.53369
    639,        9074.,   1569.67834,   1783.75562
    640,        9074.,   1616.73523,   1805.69263
    641,        9074.,   1663.79199,   1827.62976
    642,        9074.,   1710.84875,   1849.56677
    643,        9074.,   1757.90564,   1871.50378
    644,        9074.,    1804.9624,    1893.4408
    645,        9074.,   1852.01917,   1915.37781
    646,        9074.,   1899.07605,   1937.31482
    647,        9074.,   1946.13281,   1959.25183
    648,        9074.,   1993.18958,   1981.18896
    649,        9074.,   2040.24646,   2003.12598
    650,        9074.,   2087.30322,   2025.06299
    651,        9074.,   657.282532,   1358.41321
    652,        9074.,   702.826721,   1379.64514
    653,        9074.,   748.370911,   1400.87695
    654,        9074.,   793.915039,   1422.10876
    655,        9074.,   839.459229,    1443.3407
    656,        9074.,   885.003357,   1464.57251
    657,        9074.,   930.547546,   1485.80444
    658,        9074.,   976.091675,   1507.03625
    659,        9074.,   1021.63586,   1528.26819
    660,        9074.,   1067.18005,       1549.5
    661,        9074.,   1112.72412,   1570.73181
    662,        9074.,   1158.26831,   1591.96375
    663,        9074.,    1203.8125,   1613.19556
    664,        9074.,   1249.35669,   1634.42749
    665,        9074.,   1294.90076,    1655.6593
    666,        9074.,   1340.44495,   1676.89124
    667,        9074.,   1385.98914,   1698.12305
    668,        9074.,   1431.53333,   1719.35486
    669,        9074.,   1477.07739,   1740.58679
    670,        9074.,   47.0568008,   1073.93701
    671,        9074.,   94.1136017,   1095.87402
    672,        9074.,   141.170395,   1117.81104
    673,        9074.,   188.227203,   1139.74817
    674,        9074.,   235.283997,   1161.68518
    675,        9074.,    282.34079,   1183.62219
    676,        9074.,   329.397614,    1205.5592
    677,        9074.,   376.454407,   1227.49622
    678,        9074.,     423.5112,   1249.43323
    679,        9074.,   470.567993,   1271.37024
    680,        9074.,   517.624817,   1293.30737
    681,        9074.,    564.68158,   1315.24438
    682,        9074.,  -256.409821,    932.46637
    683,        9074.,   -213.67485,   952.388672
    684,        9074.,   -170.93988,   972.310913
    685,        9074.,   -128.20491,   992.233215
    686,        9074.,  -85.4699402,   1012.15546
    687,        9074.,  -42.7349701,   1032.07776
    688,        9074.,  -709.042236,   721.457336
    689,        9074.,  -663.498047,   742.689209
    690,        9074.,  -617.953918,   763.921082
    691,        9074.,  -572.409729,   785.152954
    692,        9074.,  -526.865601,   806.384827
    693,        9074.,  -481.321442,   827.616638
    694,        9074.,  -435.777283,   848.848511
    695,        9074.,  -390.233124,   870.080383
    696,        9074.,  -344.688965,   891.312256
    697,        4537.,   2479.04907,   2207.68774
    698,        4537.,   2524.59302,   2228.91968
    699,        4537.,   2570.13721,   2250.15137
    700,        4537.,    2615.6814,    2271.3833
    701,        4537.,   2661.22559,   2292.61523
    702,        4537.,   2706.76978,   2313.84717
    703,        4537.,   2752.31396,   2335.07886
    704,        4537.,   2797.85815,   2356.31079
    705,        4537.,   2843.40234,   2377.54272
    706,        4537.,   2177.09497,   2066.92236
    707,        4537.,   2219.82983,   2086.84448
    708,        4537.,   2262.56494,   2106.76685
    709,        4537.,    2305.2998,   2126.68896
    710,        4537.,   2348.03491,   2146.61133
    711,        4537.,   2390.76978,   2166.53369
    712,        4537.,   1569.67834,   1783.75562
    713,        4537.,   1616.73523,   1805.69263
    714,        4537.,   1663.79199,   1827.62976
    715,        4537.,   1710.84875,   1849.56677
    716,        4537.,   1757.90564,   1871.50378
    717,        4537.,    1804.9624,    1893.4408
    718,        4537.,   1852.01917,   1915.37781
    719,        4537.,   1899.07605,   1937.31482
    720,        4537.,   1946.13281,   1959.25183
    721,        4537.,   1993.18958,   1981.18896
    722,        4537.,   2040.24646,   2003.12598
    723,        4537.,   2087.30322,   2025.06299
    724,        4537.,   657.282532,   1358.41321
    725,        4537.,   702.826721,   1379.64514
    726,        4537.,   748.370911,   1400.87695
    727,        4537.,   793.915039,   1422.10876
    728,        4537.,   839.459229,    1443.3407
    729,        4537.,   885.003357,   1464.57251
    730,        4537.,   930.547546,   1485.80444
    731,        4537.,   976.091675,   1507.03625
    732,        4537.,   1021.63586,   1528.26819
    733,        4537.,   1067.18005,       1549.5
    734,        4537.,   1112.72412,   1570.73181
    735,        4537.,   1158.26831,   1591.96375
    736,        4537.,    1203.8125,   1613.19556
    737,        4537.,   1249.35669,   1634.42749
    738,        4537.,   1294.90076,    1655.6593
    739,        4537.,   1340.44495,   1676.89124
    740,        4537.,   1385.98914,   1698.12305
    741,        4537.,   1431.53333,   1719.35486
    742,        4537.,   1477.07739,   1740.58679
    743,        4537.,   47.0568008,   1073.93701
    744,        4537.,   94.1136017,   1095.87402
    745,        4537.,   141.170395,   1117.81104
    746,        4537.,   188.227203,   1139.74817
    747,        4537.,   235.283997,   1161.68518
    748,        4537.,    282.34079,   1183.62219
    749,        4537.,   329.397614,    1205.5592
    750,        4537.,   376.454407,   1227.49622
    751,        4537.,     423.5112,   1249.43323
    752,        4537.,   470.567993,   1271.37024
    753,        4537.,   517.624817,   1293.30737
    754,        4537.,    564.68158,   1315.24438
    755,        4537.,  -256.409821,    932.46637
    756,        4537.,   -213.67485,   952.388672
    757,        4537.,   -170.93988,   972.310913
    758,        4537.,   -128.20491,   992.233215
    759,        4537.,  -85.4699402,   1012.15546
    760,        4537.,  -42.7349701,   1032.07776
    761,        4537.,  -709.042236,   721.457336
    762,        4537.,  -663.498047,   742.689209
    763,        4537.,  -617.953918,   763.921082
    764,        4537.,  -572.409729,   785.152954
    765,        4537.,  -526.865601,   806.384827
    766,        4537.,  -481.321442,   827.616638
    767,        4537.,  -435.777283,   848.848511
    768,        4537.,  -390.233124,   870.080383
    769,        4537.,  -344.688965,   891.312256
    770,           0.,   2177.09497,   2066.92236
    771,           0.,   2219.82983,   2086.84448
    772,           0.,   2262.56494,   2106.76685
    773,           0.,    2305.2998,   2126.68896
    774,           0.,   2348.03491,   2146.61133
    775,           0.,   2390.76978,   2166.53369
    776,           0.,   1569.67834,   1783.75562
    777,           0.,   1616.73523,   1805.69263
    778,           0.,   1663.79199,   1827.62976
    779,           0.,   1710.84875,   1849.56677
    780,           0.,   1757.90564,   1871.50378
    781,           0.,    1804.9624,    1893.4408
    782,           0.,   1852.01917,   1915.37781
    783,           0.,   1899.07605,   1937.31482
    784,           0.,   1946.13281,   1959.25183
    785,           0.,   1993.18958,   1981.18896
    786,           0.,   2040.24646,   2003.12598
    787,           0.,   2087.30322,   2025.06299
    788,           0.,   657.282532,   1358.41321
    789,           0.,   702.826721,   1379.64514
    790,           0.,   748.370911,   1400.87695
    791,           0.,   793.915039,   1422.10876
    792,           0.,   839.459229,    1443.3407
    793,           0.,   885.003357,   1464.57251
    794,           0.,   930.547546,   1485.80444
    795,           0.,   976.091675,   1507.03625
    796,           0.,   1021.63586,   1528.26819
    797,           0.,   1067.18005,       1549.5
    798,           0.,   1112.72412,   1570.73181
    799,           0.,   1158.26831,   1591.96375
    800,           0.,    1203.8125,   1613.19556
    801,           0.,   1249.35669,   1634.42749
    802,           0.,   1294.90076,    1655.6593
    803,           0.,   1340.44495,   1676.89124
    804,           0.,   1385.98914,   1698.12305
    805,           0.,   1431.53333,   1719.35486
    806,           0.,   1477.07739,   1740.58679
    807,           0.,   47.0568008,   1073.93701
    808,           0.,   94.1136017,   1095.87402
    809,           0.,   141.170395,   1117.81104
    810,           0.,   188.227203,   1139.74817
    811,           0.,   235.283997,   1161.68518
    812,           0.,    282.34079,   1183.62219
    813,           0.,   329.397614,    1205.5592
    814,           0.,   376.454407,   1227.49622
    815,           0.,     423.5112,   1249.43323
    816,           0.,   470.567993,   1271.37024
    817,           0.,   517.624817,   1293.30737
    818,           0.,    564.68158,   1315.24438
    819,           0.,  -256.409821,    932.46637
    820,           0.,   -213.67485,   952.388672
    821,           0.,   -170.93988,   972.310913
    822,           0.,   -128.20491,   992.233215
    823,           0.,  -85.4699402,   1012.15546
    824,           0.,  -42.7349701,   1032.07776
    825,           0.,  -709.042236,   721.457336
    826,           0.,  -663.498047,   742.689209
    827,           0.,  -617.953918,   763.921082
    828,           0.,  -572.409729,   785.152954
    829,           0.,  -526.865601,   806.384827
    830,           0.,  -481.321442,   827.616638
    831,           0.,  -435.777283,   848.848511
    832,           0.,  -390.233124,   870.080383
    833,           0.,  -344.688965,   891.312256
    834,       18148.,   2134.36011,   466.170898
    835,       18148.,   2134.36011,   515.571838
    836,       18148.,   2134.36011,   564.972717
    837,       18148.,   2134.36011,   614.373657
    838,       18148.,   2134.36011,   663.774536
    839,       18148.,   2134.36011,   713.175476
    840,       18148.,   2134.36011,   762.576355
    841,       18148.,   2134.36011,   811.977295
    842,       18148.,   2134.36011,   861.378174
    843,       18148.,   2134.36011,   910.779114
    844,       18148.,   2134.36011,   960.179993
    845,       18148.,   2134.36011,   1009.58093
    846,       18148.,   2134.36011,   1058.98181
    847,       18148.,   2134.36011,   1108.38269
    848,       18148.,   2134.36011,   1157.78369
    849,       18148.,   2134.36011,   1207.18457
    850,       18148.,   2134.36011,   1256.58545
    851,       18148.,   2134.36011,   1305.98633
    852,       18148.,   2134.36011,   1355.38733
    853,       18148.,   2134.36011,   1404.78821
    854,       18148.,   2134.36011,   1454.18909
    855,       18148.,   2134.36011,   1503.58997
    856,       18148.,   2134.36011,   1552.99097
    857,       18148.,   2134.36011,   1602.39185
    858,       18148.,   2134.36011,   1651.79272
    859,       18148.,   2134.36011,    1701.1936
    860,       18148.,   2134.36011,    1750.5946
    861,       18148.,   2134.36011,   1799.99548
    862,       18148.,   2134.36011,   1849.39636
    863,       18148.,   2134.36011,   1898.79724
    864,       18148.,   2134.36011,   1948.19824
    865,       18148.,   2134.36011,   1997.59912
    866,       18148.,   2134.36011,   52.0962486
    867,       18148.,   2134.36011,   104.192497
    868,       18148.,   2134.36011,   156.288757
    869,       18148.,   2134.36011,   208.384995
    870,       18148.,   2134.36011,   260.481262
    871,       18148.,   2134.36011,   312.577515
    872,       18148.,   2134.36011,   364.673737
    873,   17787.1016,   1522.62158,    1761.8186
    874,   17838.6582,   1522.62158,    1761.8186
    875,   17890.2168,   1522.62158,    1761.8186
    876,   17941.7734,   1522.62158,    1761.8186
    877,   17993.3301,   1522.62158,    1761.8186
    878,   18044.8867,   1522.62158,    1761.8186
    879,   18096.4434,   1522.62158,    1761.8186
    880,   16962.1934,   1522.62158,    1761.8186
    881,     17013.75,   1522.62158,    1761.8186
    882,   17065.3066,   1522.62158,    1761.8186
    883,   17116.8633,   1522.62158,    1761.8186
    884,   17168.4199,   1522.62158,    1761.8186
    885,   17219.9766,   1522.62158,    1761.8186
    886,   17271.5332,   1522.62158,    1761.8186
    887,   17323.0918,   1522.62158,    1761.8186
    888,   17374.6484,   1522.62158,    1761.8186
    889,   17426.2051,   1522.62158,    1761.8186
    890,   17477.7617,   1522.62158,    1761.8186
    891,   17529.3184,   1522.62158,    1761.8186
    892,    17580.875,   1522.62158,    1761.8186
    893,   17632.4316,   1522.62158,    1761.8186
    894,   17683.9883,   1522.62158,    1761.8186
    895,   16137.2842,   1522.62158,    1761.8186
    896,   16188.8408,   1522.62158,    1761.8186
    897,   16240.3975,   1522.62158,    1761.8186
    898,   16291.9541,   1522.62158,    1761.8186
    899,   16343.5117,   1522.62158,    1761.8186
    900,   16395.0684,   1522.62158,    1761.8186
    901,    16446.625,   1522.62158,    1761.8186
    902,   16498.1816,   1522.62158,    1761.8186
    903,   16549.7383,   1522.62158,    1761.8186
    904,   16601.2949,   1522.62158,    1761.8186
    905,   16652.8516,   1522.62158,    1761.8186
    906,   16704.4082,   1522.62158,    1761.8186
    907,   16755.9668,   1522.62158,    1761.8186
    908,   16807.5234,   1522.62158,    1761.8186
    909,   16859.0801,   1522.62158,    1761.8186
    910,    15312.375,   1522.62158,    1761.8186
    911,   15363.9316,   1522.62158,    1761.8186
    912,   15415.4883,   1522.62158,    1761.8186
    913,   15467.0459,   1522.62158,    1761.8186
    914,   15518.6025,   1522.62158,    1761.8186
    915,   15570.1592,   1522.62158,    1761.8186
    916,   15621.7158,   1522.62158,    1761.8186
    917,   15673.2725,   1522.62158,    1761.8186
    918,   15724.8291,   1522.62158,    1761.8186
    919,   15776.3867,   1522.62158,    1761.8186
    920,   15827.9434,   1522.62158,    1761.8186
    921,      15879.5,   1522.62158,    1761.8186
    922,   15931.0566,   1522.62158,    1761.8186
    923,   15982.6133,   1522.62158,    1761.8186
    924,   16034.1709,   1522.62158,    1761.8186
    925,   14487.4658,   1522.62158,    1761.8186
    926,   14539.0225,   1522.62158,    1761.8186
    927,   14590.5791,   1522.62158,    1761.8186
    928,   14642.1367,   1522.62158,    1761.8186
    929,   14693.6934,   1522.62158,    1761.8186
    930,     14745.25,   1522.62158,    1761.8186
    931,   14796.8066,   1522.62158,    1761.8186
    932,   14848.3633,   1522.62158,    1761.8186
    933,   14899.9209,   1522.62158,    1761.8186
    934,   14951.4775,   1522.62158,    1761.8186
    935,   15003.0342,   1522.62158,    1761.8186
    936,   15054.5908,   1522.62158,    1761.8186
    937,   15106.1475,   1522.62158,    1761.8186
    938,   15157.7041,   1522.62158,    1761.8186
    939,   15209.2617,   1522.62158,    1761.8186
    940,   13662.5566,   1522.62158,    1761.8186
    941,   13714.1133,   1522.62158,    1761.8186
    942,   13765.6709,   1522.62158,    1761.8186
    943,   13817.2275,   1522.62158,    1761.8186
    944,   13868.7842,   1522.62158,    1761.8186
    945,   13920.3408,   1522.62158,    1761.8186
    946,   13971.8975,   1522.62158,    1761.8186
    947,   14023.4541,   1522.62158,    1761.8186
    948,   14075.0117,   1522.62158,    1761.8186
    949,   14126.5684,   1522.62158,    1761.8186
    950,    14178.125,   1522.62158,    1761.8186
    951,   14229.6816,   1522.62158,    1761.8186
    952,   14281.2383,   1522.62158,    1761.8186
    953,   14332.7959,   1522.62158,    1761.8186
    954,   14384.3525,   1522.62158,    1761.8186
    955,   12837.6475,   1522.62158,    1761.8186
    956,   12889.2041,   1522.62158,    1761.8186
    957,   12940.7617,   1522.62158,    1761.8186
    958,   12992.3184,   1522.62158,    1761.8186
    959,    13043.875,   1522.62158,    1761.8186
    960,   13095.4316,   1522.62158,    1761.8186
    961,   13146.9883,   1522.62158,    1761.8186
    962,   13198.5459,   1522.62158,    1761.8186
    963,   13250.1025,   1522.62158,    1761.8186
    964,   13301.6592,   1522.62158,    1761.8186
    965,   13353.2158,   1522.62158,    1761.8186
    966,   13404.7725,   1522.62158,    1761.8186
    967,   13456.3291,   1522.62158,    1761.8186
    968,   13507.8867,   1522.62158,    1761.8186
    969,   13559.4434,   1522.62158,    1761.8186
    970,   12012.7383,   1522.62158,    1761.8186
    971,   12064.2959,   1522.62158,    1761.8186
    972,   12115.8525,   1522.62158,    1761.8186
    973,   12167.4092,   1522.62158,    1761.8186
    974,   12218.9658,   1522.62158,    1761.8186
    975,   12270.5225,   1522.62158,    1761.8186
    976,   12322.0791,   1522.62158,    1761.8186
    977,   12373.6367,   1522.62158,    1761.8186
    978,   12425.1934,   1522.62158,    1761.8186
    979,     12476.75,   1522.62158,    1761.8186
    980,   12528.3066,   1522.62158,    1761.8186
    981,   12579.8633,   1522.62158,    1761.8186
    982,   12631.4209,   1522.62158,    1761.8186
    983,   12682.9775,   1522.62158,    1761.8186
    984,   12734.5342,   1522.62158,    1761.8186
    985,   11187.8291,   1522.62158,    1761.8186
    986,   11239.3867,   1522.62158,    1761.8186
    987,   11290.9434,   1522.62158,    1761.8186
    988,      11342.5,   1522.62158,    1761.8186
    989,   11394.0566,   1522.62158,    1761.8186
    990,   11445.6133,   1522.62158,    1761.8186
    991,   11497.1709,   1522.62158,    1761.8186
    992,   11548.7275,   1522.62158,    1761.8186
    993,   11600.2842,   1522.62158,    1761.8186
    994,   11651.8408,   1522.62158,    1761.8186
    995,   11703.3975,   1522.62158,    1761.8186
    996,   11754.9541,   1522.62158,    1761.8186
    997,   11806.5117,   1522.62158,    1761.8186
    998,   11858.0684,   1522.62158,    1761.8186
    999,    11909.625,   1522.62158,    1761.8186
   1000,   10362.9209,   1522.62158,    1761.8186
   1001,   10414.4775,   1522.62158,    1761.8186
   1002,   10466.0342,   1522.62158,    1761.8186
   1003,   10517.5908,   1522.62158,    1761.8186
   1004,   10569.1475,   1522.62158,    1761.8186
   1005,   10620.7041,   1522.62158,    1761.8186
   1006,   10672.2617,   1522.62158,    1761.8186
   1007,   10723.8184,   1522.62158,    1761.8186
   1008,    10775.375,   1522.62158,    1761.8186
   1009,   10826.9316,   1522.62158,    1761.8186
   1010,   10878.4883,   1522.62158,    1761.8186
   1011,   10930.0459,   1522.62158,    1761.8186
   1012,   10981.6025,   1522.62158,    1761.8186
   1013,   11033.1592,   1522.62158,    1761.8186
   1014,   11084.7158,   1522.62158,    1761.8186
   1015,   9538.01172,   1522.62158,    1761.8186
   1016,   9589.56836,   1522.62158,    1761.8186
   1017,     9641.125,   1522.62158,    1761.8186
   1018,   9692.68164,   1522.62158,    1761.8186
   1019,   9744.23828,   1522.62158,    1761.8186
   1020,    9795.7959,   1522.62158,    1761.8186
   1021,   9847.35254,   1522.62158,    1761.8186
   1022,   9898.90918,   1522.62158,    1761.8186
   1023,   9950.46582,   1522.62158,    1761.8186
   1024,   10002.0225,   1522.62158,    1761.8186
   1025,   10053.5791,   1522.62158,    1761.8186
   1026,   10105.1367,   1522.62158,    1761.8186
   1027,   10156.6934,   1522.62158,    1761.8186
   1028,     10208.25,   1522.62158,    1761.8186
   1029,   10259.8066,   1522.62158,    1761.8186
   1030,   9125.55664,   1522.62158,    1761.8186
   1031,   9177.11328,   1522.62158,    1761.8186
   1032,    9228.6709,   1522.62158,    1761.8186
   1033,   9280.22754,   1522.62158,    1761.8186
   1034,   9331.78418,   1522.62158,    1761.8186
   1035,   9383.34082,   1522.62158,    1761.8186
   1036,   9434.89746,   1522.62158,    1761.8186
   1037,   8713.10254,   1522.62158,    1761.8186
   1038,   8764.65918,   1522.62158,    1761.8186
   1039,   8816.21582,   1522.62158,    1761.8186
   1040,   8867.77246,   1522.62158,    1761.8186
   1041,    8919.3291,   1522.62158,    1761.8186
   1042,   8970.88672,   1522.62158,    1761.8186
   1043,   9022.44336,   1522.62158,    1761.8186
   1044,   7888.19336,   1522.62158,    1761.8186
   1045,      7939.75,   1522.62158,    1761.8186
   1046,   7991.30664,   1522.62158,    1761.8186
   1047,   8042.86377,   1522.62158,    1761.8186
   1048,   8094.42041,   1522.62158,    1761.8186
   1049,   8145.97705,   1522.62158,    1761.8186
   1050,   8197.53418,   1522.62158,    1761.8186
   1051,   8249.09082,   1522.62158,    1761.8186
   1052,   8300.64746,   1522.62158,    1761.8186
   1053,    8352.2041,   1522.62158,    1761.8186
   1054,   8403.76172,   1522.62158,    1761.8186
   1055,   8455.31836,   1522.62158,    1761.8186
   1056,     8506.875,   1522.62158,    1761.8186
   1057,   8558.43164,   1522.62158,    1761.8186
   1058,   8609.98828,   1522.62158,    1761.8186
   1059,   7063.28418,   1522.62158,    1761.8186
   1060,   7114.84082,   1522.62158,    1761.8186
   1061,   7166.39795,   1522.62158,    1761.8186
   1062,   7217.95459,   1522.62158,    1761.8186
   1063,   7269.51123,   1522.62158,    1761.8186
   1064,   7321.06836,   1522.62158,    1761.8186
   1065,     7372.625,   1522.62158,    1761.8186
   1066,   7424.18164,   1522.62158,    1761.8186
   1067,   7475.73877,   1522.62158,    1761.8186
   1068,   7527.29541,   1522.62158,    1761.8186
   1069,   7578.85205,   1522.62158,    1761.8186
   1070,   7630.40918,   1522.62158,    1761.8186
   1071,   7681.96582,   1522.62158,    1761.8186
   1072,   7733.52295,   1522.62158,    1761.8186
   1073,   7785.07959,   1522.62158,    1761.8186
   1074,     6238.375,   1522.62158,    1761.8186
   1075,   6289.93164,   1522.62158,    1761.8186
   1076,   6341.48877,   1522.62158,    1761.8186
   1077,   6393.04541,   1522.62158,    1761.8186
   1078,   6444.60205,   1522.62158,    1761.8186
   1079,   6496.15918,   1522.62158,    1761.8186
   1080,   6547.71582,   1522.62158,    1761.8186
   1081,   6599.27295,   1522.62158,    1761.8186
   1082,   6650.82959,   1522.62158,    1761.8186
   1083,   6702.38623,   1522.62158,    1761.8186
   1084,   6753.94336,   1522.62158,    1761.8186
   1085,       6805.5,   1522.62158,    1761.8186
   1086,   6857.05664,   1522.62158,    1761.8186
   1087,   6908.61377,   1522.62158,    1761.8186
   1088,   6960.17041,   1522.62158,    1761.8186
   1089,   5413.46582,   1522.62158,    1761.8186
   1090,   5465.02295,   1522.62158,    1761.8186
   1091,   5516.57959,   1522.62158,    1761.8186
   1092,   5568.13623,   1522.62158,    1761.8186
   1093,   5619.69336,   1522.62158,    1761.8186
   1094,      5671.25,   1522.62158,    1761.8186
   1095,   5722.80664,   1522.62158,    1761.8186
   1096,   5774.36377,   1522.62158,    1761.8186
   1097,   5825.92041,   1522.62158,    1761.8186
   1098,   5877.47705,   1522.62158,    1761.8186
   1099,   5929.03418,   1522.62158,    1761.8186
   1100,   5980.59082,   1522.62158,    1761.8186
   1101,   6032.14795,   1522.62158,    1761.8186
   1102,   6083.70459,   1522.62158,    1761.8186
   1103,   6135.26123,   1522.62158,    1761.8186
   1104,   4588.55664,   1522.62158,    1761.8186
   1105,   4640.11377,   1522.62158,    1761.8186
   1106,   4691.67041,   1522.62158,    1761.8186
   1107,   4743.22705,   1522.62158,    1761.8186
   1108,   4794.78418,   1522.62158,    1761.8186
   1109,   4846.34082,   1522.62158,    1761.8186
   1110,   4897.89795,   1522.62158,    1761.8186
   1111,   4949.45459,   1522.62158,    1761.8186
   1112,   5001.01123,   1522.62158,    1761.8186
   1113,   5052.56836,   1522.62158,    1761.8186
   1114,     5104.125,   1522.62158,    1761.8186
   1115,   5155.68164,   1522.62158,    1761.8186
   1116,   5207.23877,   1522.62158,    1761.8186
   1117,   5258.79541,   1522.62158,    1761.8186
   1118,   5310.35205,   1522.62158,    1761.8186
   1119,   3763.64771,   1522.62158,    1761.8186
   1120,   3815.20459,   1522.62158,    1761.8186
   1121,   3866.76147,   1522.62158,    1761.8186
   1122,   3918.31812,   1522.62158,    1761.8186
   1123,     3969.875,   1522.62158,    1761.8186
   1124,   4021.43188,   1522.62158,    1761.8186
   1125,   4072.98853,   1522.62158,    1761.8186
   1126,   4124.54541,   1522.62158,    1761.8186
   1127,   4176.10205,   1522.62158,    1761.8186
   1128,   4227.65918,   1522.62158,    1761.8186
   1129,   4279.21582,   1522.62158,    1761.8186
   1130,   4330.77295,   1522.62158,    1761.8186
   1131,   4382.32959,   1522.62158,    1761.8186
   1132,   4433.88623,   1522.62158,    1761.8186
   1133,   4485.44336,   1522.62158,    1761.8186
   1134,   2938.73853,   1522.62158,    1761.8186
   1135,   2990.29541,   1522.62158,    1761.8186
   1136,   3041.85229,   1522.62158,    1761.8186
   1137,   3093.40918,   1522.62158,    1761.8186
   1138,   3144.96582,   1522.62158,    1761.8186
   1139,   3196.52271,   1522.62158,    1761.8186
   1140,   3248.07959,   1522.62158,    1761.8186
   1141,   3299.63647,   1522.62158,    1761.8186
   1142,   3351.19312,   1522.62158,    1761.8186
   1143,      3402.75,   1522.62158,    1761.8186
   1144,   3454.30688,   1522.62158,    1761.8186
   1145,   3505.86353,   1522.62158,    1761.8186
   1146,   3557.42041,   1522.62158,    1761.8186
   1147,   3608.97729,   1522.62158,    1761.8186
   1148,   3660.53418,   1522.62158,    1761.8186
   1149,   2113.82959,   1522.62158,    1761.8186
   1150,   2165.38647,   1522.62158,    1761.8186
   1151,   2216.94312,   1522.62158,    1761.8186
   1152,       2268.5,   1522.62158,    1761.8186
   1153,   2320.05688,   1522.62158,    1761.8186
   1154,   2371.61353,   1522.62158,    1761.8186
   1155,   2423.17041,   1522.62158,    1761.8186
   1156,   2474.72729,   1522.62158,    1761.8186
   1157,   2526.28418,   1522.62158,    1761.8186
   1158,   2577.84082,   1522.62158,    1761.8186
   1159,   2629.39771,   1522.62158,    1761.8186
   1160,   2680.95459,   1522.62158,    1761.8186
   1161,   2732.51147,   1522.62158,    1761.8186
   1162,   2784.06812,   1522.62158,    1761.8186
   1163,     2835.625,   1522.62158,    1761.8186
   1164,   1288.92041,   1522.62158,    1761.8186
   1165,   1340.47729,   1522.62158,    1761.8186
   1166,   1392.03406,   1522.62158,    1761.8186
   1167,   1443.59094,   1522.62158,    1761.8186
   1168,   1495.14771,   1522.62158,    1761.8186
   1169,   1546.70459,   1522.62158,    1761.8186
   1170,   1598.26135,   1522.62158,    1761.8186
   1171,   1649.81824,   1522.62158,    1761.8186
   1172,     1701.375,   1522.62158,    1761.8186
   1173,   1752.93176,   1522.62158,    1761.8186
   1174,   1804.48865,   1522.62158,    1761.8186
   1175,   1856.04541,   1522.62158,    1761.8186
   1176,   1907.60229,   1522.62158,    1761.8186
   1177,   1959.15906,   1522.62158,    1761.8186
   1178,   2010.71594,   1522.62158,    1761.8186
   1179,   464.011353,   1522.62158,    1761.8186
   1180,   515.568176,   1522.62158,    1761.8186
   1181,      567.125,   1522.62158,    1761.8186
   1182,   618.681824,   1522.62158,    1761.8186
   1183,   670.238647,   1522.62158,    1761.8186
   1184,   721.795471,   1522.62158,    1761.8186
   1185,   773.352295,   1522.62158,    1761.8186
   1186,   824.909119,   1522.62158,    1761.8186
   1187,   876.465881,   1522.62158,    1761.8186
   1188,   928.022705,   1522.62158,    1761.8186
   1189,   979.579529,   1522.62158,    1761.8186
   1190,   1031.13635,   1522.62158,    1761.8186
   1191,   1082.69324,   1522.62158,    1761.8186
   1192,      1134.25,   1522.62158,    1761.8186
   1193,   1185.80676,   1522.62158,    1761.8186
   1194,   51.5568199,   1522.62158,    1761.8186
   1195,    103.11364,   1522.62158,    1761.8186
   1196,   154.670456,   1522.62158,    1761.8186
   1197,    206.22728,   1522.62158,    1761.8186
   1198,   257.784088,   1522.62158,    1761.8186
   1199,   309.340912,   1522.62158,    1761.8186
   1200,   360.897736,   1522.62158,    1761.8186
   1201,   17787.1016,   611.738403,    1337.1814
   1202,   17838.6582,   611.738403,    1337.1814
   1203,   17890.2168,   611.738403,    1337.1814
   1204,   17941.7734,   611.738403,    1337.1814
   1205,   17993.3301,   611.738403,    1337.1814
   1206,   18044.8867,   611.738403,    1337.1814
   1207,   18096.4434,   611.738403,    1337.1814
   1208,   16962.1934,   611.738403,    1337.1814
   1209,     17013.75,   611.738403,    1337.1814
   1210,   17065.3066,   611.738403,    1337.1814
   1211,   17116.8633,   611.738403,    1337.1814
   1212,   17168.4199,   611.738403,    1337.1814
   1213,   17219.9766,   611.738403,    1337.1814
   1214,   17271.5332,   611.738403,    1337.1814
   1215,   17323.0918,   611.738403,    1337.1814
   1216,   17374.6484,   611.738403,    1337.1814
   1217,   17426.2051,   611.738403,    1337.1814
   1218,   17477.7617,   611.738403,    1337.1814
   1219,   17529.3184,   611.738403,    1337.1814
   1220,    17580.875,   611.738403,    1337.1814
   1221,   17632.4316,   611.738403,    1337.1814
   1222,   17683.9883,   611.738403,    1337.1814
   1223,   16137.2842,   611.738403,    1337.1814
   1224,   16188.8408,   611.738403,    1337.1814
   1225,   16240.3975,   611.738403,    1337.1814
   1226,   16291.9541,   611.738403,    1337.1814
   1227,   16343.5117,   611.738403,    1337.1814
   1228,   16395.0684,   611.738403,    1337.1814
   1229,    16446.625,   611.738403,    1337.1814
   1230,   16498.1816,   611.738403,    1337.1814
   1231,   16549.7383,   611.738403,    1337.1814
   1232,   16601.2949,   611.738403,    1337.1814
   1233,   16652.8516,   611.738403,    1337.1814
   1234,   16704.4082,   611.738403,    1337.1814
   1235,   16755.9668,   611.738403,    1337.1814
   1236,   16807.5234,   611.738403,    1337.1814
   1237,   16859.0801,   611.738403,    1337.1814
   1238,    15312.375,   611.738403,    1337.1814
   1239,   15363.9316,   611.738403,    1337.1814
   1240,   15415.4883,   611.738403,    1337.1814
   1241,   15467.0459,   611.738403,    1337.1814
   1242,   15518.6025,   611.738403,    1337.1814
   1243,   15570.1592,   611.738403,    1337.1814
   1244,   15621.7158,   611.738403,    1337.1814
   1245,   15673.2725,   611.738403,    1337.1814
   1246,   15724.8291,   611.738403,    1337.1814
   1247,   15776.3867,   611.738403,    1337.1814
   1248,   15827.9434,   611.738403,    1337.1814
   1249,      15879.5,   611.738403,    1337.1814
   1250,   15931.0566,   611.738403,    1337.1814
   1251,   15982.6133,   611.738403,    1337.1814
   1252,   16034.1709,   611.738403,    1337.1814
   1253,   14487.4658,   611.738403,    1337.1814
   1254,   14539.0225,   611.738403,    1337.1814
   1255,   14590.5791,   611.738403,    1337.1814
   1256,   14642.1367,   611.738403,    1337.1814
   1257,   14693.6934,   611.738403,    1337.1814
   1258,     14745.25,   611.738403,    1337.1814
   1259,   14796.8066,   611.738403,    1337.1814
   1260,   14848.3633,   611.738403,    1337.1814
   1261,   14899.9209,   611.738403,    1337.1814
   1262,   14951.4775,   611.738403,    1337.1814
   1263,   15003.0342,   611.738403,    1337.1814
   1264,   15054.5908,   611.738403,    1337.1814
   1265,   15106.1475,   611.738403,    1337.1814
   1266,   15157.7041,   611.738403,    1337.1814
   1267,   15209.2617,   611.738403,    1337.1814
   1268,   13662.5566,   611.738403,    1337.1814
   1269,   13714.1133,   611.738403,    1337.1814
   1270,   13765.6709,   611.738403,    1337.1814
   1271,   13817.2275,   611.738403,    1337.1814
   1272,   13868.7842,   611.738403,    1337.1814
   1273,   13920.3408,   611.738403,    1337.1814
   1274,   13971.8975,   611.738403,    1337.1814
   1275,   14023.4541,   611.738403,    1337.1814
   1276,   14075.0117,   611.738403,    1337.1814
   1277,   14126.5684,   611.738403,    1337.1814
   1278,    14178.125,   611.738403,    1337.1814
   1279,   14229.6816,   611.738403,    1337.1814
   1280,   14281.2383,   611.738403,    1337.1814
   1281,   14332.7959,   611.738403,    1337.1814
   1282,   14384.3525,   611.738403,    1337.1814
   1283,   12837.6475,   611.738403,    1337.1814
   1284,   12889.2041,   611.738403,    1337.1814
   1285,   12940.7617,   611.738403,    1337.1814
   1286,   12992.3184,   611.738403,    1337.1814
   1287,    13043.875,   611.738403,    1337.1814
   1288,   13095.4316,   611.738403,    1337.1814
   1289,   13146.9883,   611.738403,    1337.1814
   1290,   13198.5459,   611.738403,    1337.1814
   1291,   13250.1025,   611.738403,    1337.1814
   1292,   13301.6592,   611.738403,    1337.1814
   1293,   13353.2158,   611.738403,    1337.1814
   1294,   13404.7725,   611.738403,    1337.1814
   1295,   13456.3291,   611.738403,    1337.1814
   1296,   13507.8867,   611.738403,    1337.1814
   1297,   13559.4434,   611.738403,    1337.1814
   1298,   12012.7383,   611.738403,    1337.1814
   1299,   12064.2959,   611.738403,    1337.1814
   1300,   12115.8525,   611.738403,    1337.1814
   1301,   12167.4092,   611.738403,    1337.1814
   1302,   12218.9658,   611.738403,    1337.1814
   1303,   12270.5225,   611.738403,    1337.1814
   1304,   12322.0791,   611.738403,    1337.1814
   1305,   12373.6367,   611.738403,    1337.1814
   1306,   12425.1934,   611.738403,    1337.1814
   1307,     12476.75,   611.738403,    1337.1814
   1308,   12528.3066,   611.738403,    1337.1814
   1309,   12579.8633,   611.738403,    1337.1814
   1310,   12631.4209,   611.738403,    1337.1814
   1311,   12682.9775,   611.738403,    1337.1814
   1312,   12734.5342,   611.738403,    1337.1814
   1313,   11187.8291,   611.738403,    1337.1814
   1314,   11239.3867,   611.738403,    1337.1814
   1315,   11290.9434,   611.738403,    1337.1814
   1316,      11342.5,   611.738403,    1337.1814
   1317,   11394.0566,   611.738403,    1337.1814
   1318,   11445.6133,   611.738403,    1337.1814
   1319,   11497.1709,   611.738403,    1337.1814
   1320,   11548.7275,   611.738403,    1337.1814
   1321,   11600.2842,   611.738403,    1337.1814
   1322,   11651.8408,   611.738403,    1337.1814
   1323,   11703.3975,   611.738403,    1337.1814
   1324,   11754.9541,   611.738403,    1337.1814
   1325,   11806.5117,   611.738403,    1337.1814
   1326,   11858.0684,   611.738403,    1337.1814
   1327,    11909.625,   611.738403,    1337.1814
   1328,   10362.9209,   611.738403,    1337.1814
   1329,   10414.4775,   611.738403,    1337.1814
   1330,   10466.0342,   611.738403,    1337.1814
   1331,   10517.5908,   611.738403,    1337.1814
   1332,   10569.1475,   611.738403,    1337.1814
   1333,   10620.7041,   611.738403,    1337.1814
   1334,   10672.2617,   611.738403,    1337.1814
   1335,   10723.8184,   611.738403,    1337.1814
   1336,    10775.375,   611.738403,    1337.1814
   1337,   10826.9316,   611.738403,    1337.1814
   1338,   10878.4883,   611.738403,    1337.1814
   1339,   10930.0459,   611.738403,    1337.1814
   1340,   10981.6025,   611.738403,    1337.1814
   1341,   11033.1592,   611.738403,    1337.1814
   1342,   11084.7158,   611.738403,    1337.1814
   1343,   9538.01172,   611.738403,    1337.1814
   1344,   9589.56836,   611.738403,    1337.1814
   1345,     9641.125,   611.738403,    1337.1814
   1346,   9692.68164,   611.738403,    1337.1814
   1347,   9744.23828,   611.738403,    1337.1814
   1348,    9795.7959,   611.738403,    1337.1814
   1349,   9847.35254,   611.738403,    1337.1814
   1350,   9898.90918,   611.738403,    1337.1814
   1351,   9950.46582,   611.738403,    1337.1814
   1352,   10002.0225,   611.738403,    1337.1814
   1353,   10053.5791,   611.738403,    1337.1814
   1354,   10105.1367,   611.738403,    1337.1814
   1355,   10156.6934,   611.738403,    1337.1814
   1356,     10208.25,   611.738403,    1337.1814
   1357,   10259.8066,   611.738403,    1337.1814
   1358,   9125.55664,   611.738403,    1337.1814
   1359,   9177.11328,   611.738403,    1337.1814
   1360,    9228.6709,   611.738403,    1337.1814
   1361,   9280.22754,   611.738403,    1337.1814
   1362,   9331.78418,   611.738403,    1337.1814
   1363,   9383.34082,   611.738403,    1337.1814
   1364,   9434.89746,   611.738403,    1337.1814
   1365,   8713.10254,   611.738403,    1337.1814
   1366,   8764.65918,   611.738403,    1337.1814
   1367,   8816.21582,   611.738403,    1337.1814
   1368,   8867.77246,   611.738403,    1337.1814
   1369,    8919.3291,   611.738403,    1337.1814
   1370,   8970.88672,   611.738403,    1337.1814
   1371,   9022.44336,   611.738403,    1337.1814
   1372,   7888.19336,   611.738403,    1337.1814
   1373,      7939.75,   611.738403,    1337.1814
   1374,   7991.30664,   611.738403,    1337.1814
   1375,   8042.86377,   611.738403,    1337.1814
   1376,   8094.42041,   611.738403,    1337.1814
   1377,   8145.97705,   611.738403,    1337.1814
   1378,   8197.53418,   611.738403,    1337.1814
   1379,   8249.09082,   611.738403,    1337.1814
   1380,   8300.64746,   611.738403,    1337.1814
   1381,    8352.2041,   611.738403,    1337.1814
   1382,   8403.76172,   611.738403,    1337.1814
   1383,   8455.31836,   611.738403,    1337.1814
   1384,     8506.875,   611.738403,    1337.1814
   1385,   8558.43164,   611.738403,    1337.1814
   1386,   8609.98828,   611.738403,    1337.1814
   1387,   7063.28418,   611.738403,    1337.1814
   1388,   7114.84082,   611.738403,    1337.1814
   1389,   7166.39795,   611.738403,    1337.1814
   1390,   7217.95459,   611.738403,    1337.1814
   1391,   7269.51123,   611.738403,    1337.1814
   1392,   7321.06836,   611.738403,    1337.1814
   1393,     7372.625,   611.738403,    1337.1814
   1394,   7424.18164,   611.738403,    1337.1814
   1395,   7475.73877,   611.738403,    1337.1814
   1396,   7527.29541,   611.738403,    1337.1814
   1397,   7578.85205,   611.738403,    1337.1814
   1398,   7630.40918,   611.738403,    1337.1814
   1399,   7681.96582,   611.738403,    1337.1814
   1400,   7733.52295,   611.738403,    1337.1814
   1401,   7785.07959,   611.738403,    1337.1814
   1402,     6238.375,   611.738403,    1337.1814
   1403,   6289.93164,   611.738403,    1337.1814
   1404,   6341.48877,   611.738403,    1337.1814
   1405,   6393.04541,   611.738403,    1337.1814
   1406,   6444.60205,   611.738403,    1337.1814
   1407,   6496.15918,   611.738403,    1337.1814
   1408,   6547.71582,   611.738403,    1337.1814
   1409,   6599.27295,   611.738403,    1337.1814
   1410,   6650.82959,   611.738403,    1337.1814
   1411,   6702.38623,   611.738403,    1337.1814
   1412,   6753.94336,   611.738403,    1337.1814
   1413,       6805.5,   611.738403,    1337.1814
   1414,   6857.05664,   611.738403,    1337.1814
   1415,   6908.61377,   611.738403,    1337.1814
   1416,   6960.17041,   611.738403,    1337.1814
   1417,   5413.46582,   611.738403,    1337.1814
   1418,   5465.02295,   611.738403,    1337.1814
   1419,   5516.57959,   611.738403,    1337.1814
   1420,   5568.13623,   611.738403,    1337.1814
   1421,   5619.69336,   611.738403,    1337.1814
   1422,      5671.25,   611.738403,    1337.1814
   1423,   5722.80664,   611.738403,    1337.1814
   1424,   5774.36377,   611.738403,    1337.1814
   1425,   5825.92041,   611.738403,    1337.1814
   1426,   5877.47705,   611.738403,    1337.1814
   1427,   5929.03418,   611.738403,    1337.1814
   1428,   5980.59082,   611.738403,    1337.1814
   1429,   6032.14795,   611.738403,    1337.1814
   1430,   6083.70459,   611.738403,    1337.1814
   1431,   6135.26123,   611.738403,    1337.1814
   1432,   4588.55664,   611.738403,    1337.1814
   1433,   4640.11377,   611.738403,    1337.1814
   1434,   4691.67041,   611.738403,    1337.1814
   1435,   4743.22705,   611.738403,    1337.1814
   1436,   4794.78418,   611.738403,    1337.1814
   1437,   4846.34082,   611.738403,    1337.1814
   1438,   4897.89795,   611.738403,    1337.1814
   1439,   4949.45459,   611.738403,    1337.1814
   1440,   5001.01123,   611.738403,    1337.1814
   1441,   5052.56836,   611.738403,    1337.1814
   1442,     5104.125,   611.738403,    1337.1814
   1443,   5155.68164,   611.738403,    1337.1814
   1444,   5207.23877,   611.738403,    1337.1814
   1445,   5258.79541,   611.738403,    1337.1814
   1446,   5310.35205,   611.738403,    1337.1814
   1447,   3763.64771,   611.738403,    1337.1814
   1448,   3815.20459,   611.738403,    1337.1814
   1449,   3866.76147,   611.738403,    1337.1814
   1450,   3918.31812,   611.738403,    1337.1814
   1451,     3969.875,   611.738403,    1337.1814
   1452,   4021.43188,   611.738403,    1337.1814
   1453,   4072.98853,   611.738403,    1337.1814
   1454,   4124.54541,   611.738403,    1337.1814
   1455,   4176.10205,   611.738403,    1337.1814
   1456,   4227.65918,   611.738403,    1337.1814
   1457,   4279.21582,   611.738403,    1337.1814
   1458,   4330.77295,   611.738403,    1337.1814
   1459,   4382.32959,   611.738403,    1337.1814
   1460,   4433.88623,   611.738403,    1337.1814
   1461,   4485.44336,   611.738403,    1337.1814
   1462,   2938.73853,   611.738403,    1337.1814
   1463,   2990.29541,   611.738403,    1337.1814
   1464,   3041.85229,   611.738403,    1337.1814
   1465,   3093.40918,   611.738403,    1337.1814
   1466,   3144.96582,   611.738403,    1337.1814
   1467,   3196.52271,   611.738403,    1337.1814
   1468,   3248.07959,   611.738403,    1337.1814
   1469,   3299.63647,   611.738403,    1337.1814
   1470,   3351.19312,   611.738403,    1337.1814
   1471,      3402.75,   611.738403,    1337.1814
   1472,   3454.30688,   611.738403,    1337.1814
   1473,   3505.86353,   611.738403,    1337.1814
   1474,   3557.42041,   611.738403,    1337.1814
   1475,   3608.97729,   611.738403,    1337.1814
   1476,   3660.53418,   611.738403,    1337.1814
   1477,   2113.82959,   611.738403,    1337.1814
   1478,   2165.38647,   611.738403,    1337.1814
   1479,   2216.94312,   611.738403,    1337.1814
   1480,       2268.5,   611.738403,    1337.1814
   1481,   2320.05688,   611.738403,    1337.1814
   1482,   2371.61353,   611.738403,    1337.1814
   1483,   2423.17041,   611.738403,    1337.1814
   1484,   2474.72729,   611.738403,    1337.1814
   1485,   2526.28418,   611.738403,    1337.1814
   1486,   2577.84082,   611.738403,    1337.1814
   1487,   2629.39771,   611.738403,    1337.1814
   1488,   2680.95459,   611.738403,    1337.1814
   1489,   2732.51147,   611.738403,    1337.1814
   1490,   2784.06812,   611.738403,    1337.1814
   1491,     2835.625,   611.738403,    1337.1814
   1492,   1288.92041,   611.738403,    1337.1814
   1493,   1340.47729,   611.738403,    1337.1814
   1494,   1392.03406,   611.738403,    1337.1814
   1495,   1443.59094,   611.738403,    1337.1814
   1496,   1495.14771,   611.738403,    1337.1814
   1497,   1546.70459,   611.738403,    1337.1814
   1498,   1598.26135,   611.738403,    1337.1814
   1499,   1649.81824,   611.738403,    1337.1814
   1500,     1701.375,   611.738403,    1337.1814
   1501,   1752.93176,   611.738403,    1337.1814
   1502,   1804.48865,   611.738403,    1337.1814
   1503,   1856.04541,   611.738403,    1337.1814
   1504,   1907.60229,   611.738403,    1337.1814
   1505,   1959.15906,   611.738403,    1337.1814
   1506,   2010.71594,   611.738403,    1337.1814
   1507,   464.011353,   611.738403,    1337.1814
   1508,   515.568176,   611.738403,    1337.1814
   1509,      567.125,   611.738403,    1337.1814
   1510,   618.681824,   611.738403,    1337.1814
   1511,   670.238647,   611.738403,    1337.1814
   1512,   721.795471,   611.738403,    1337.1814
   1513,   773.352295,   611.738403,    1337.1814
   1514,   824.909119,   611.738403,    1337.1814
   1515,   876.465881,   611.738403,    1337.1814
   1516,   928.022705,   611.738403,    1337.1814
   1517,   979.579529,   611.738403,    1337.1814
   1518,   1031.13635,   611.738403,    1337.1814
   1519,   1082.69324,   611.738403,    1337.1814
   1520,      1134.25,   611.738403,    1337.1814
   1521,   1185.80676,   611.738403,    1337.1814
   1522,   51.5568199,   611.738403,    1337.1814
   1523,    103.11364,   611.738403,    1337.1814
   1524,   154.670456,   611.738403,    1337.1814
   1525,    206.22728,   611.738403,    1337.1814
   1526,   257.784088,   611.738403,    1337.1814
   1527,   309.340912,   611.738403,    1337.1814
   1528,   360.897736,   611.738403,    1337.1814
   1529,       18148.,           0.,   968.666687
   1530,       18148.,           0.,   1010.33331
   1531,       18148.,           0.,   48.7894745
   1532,       18148.,           0.,    97.578949
   1533,       18148.,           0.,   146.368423
   1534,       18148.,           0.,   195.157898
   1535,       18148.,           0.,   243.947372
   1536,       18148.,           0.,   292.736847
   1537,       18148.,           0.,   341.526306
   1538,       18148.,           0.,   390.315796
   1539,       18148.,           0.,   439.105255
   1540,       18148.,           0.,   487.894745
   1541,       18148.,           0.,   536.684204
   1542,       18148.,           0.,   585.473694
   1543,       18148.,           0.,   634.263184
   1544,       18148.,           0.,   683.052612
   1545,       18148.,           0.,   731.842102
   1546,       18148.,           0.,   780.631592
   1547,       18148.,           0.,   829.421082
   1548,       18148.,           0.,    878.21051
   1549,   17787.1016,  -299.144806,   912.544128
   1550,   17838.6582,  -299.144806,   912.544128
   1551,   17890.2168,  -299.144806,   912.544128
   1552,   17941.7734,  -299.144806,   912.544128
   1553,   17993.3301,  -299.144806,   912.544128
   1554,   18044.8867,  -299.144806,   912.544128
   1555,   18096.4434,  -299.144806,   912.544128
   1556,   16962.1934,  -299.144806,   912.544128
   1557,     17013.75,  -299.144806,   912.544128
   1558,   17065.3066,  -299.144806,   912.544128
   1559,   17116.8633,  -299.144806,   912.544128
   1560,   17168.4199,  -299.144806,   912.544128
   1561,   17219.9766,  -299.144806,   912.544128
   1562,   17271.5332,  -299.144806,   912.544128
   1563,   17323.0918,  -299.144806,   912.544128
   1564,   17374.6484,  -299.144806,   912.544128
   1565,   17426.2051,  -299.144806,   912.544128
   1566,   17477.7617,  -299.144806,   912.544128
   1567,   17529.3184,  -299.144806,   912.544128
   1568,    17580.875,  -299.144806,   912.544128
   1569,   17632.4316,  -299.144806,   912.544128
   1570,   17683.9883,  -299.144806,   912.544128
   1571,   16137.2842,  -299.144806,   912.544128
   1572,   16188.8408,  -299.144806,   912.544128
   1573,   16240.3975,  -299.144806,   912.544128
   1574,   16291.9541,  -299.144806,   912.544128
   1575,   16343.5117,  -299.144806,   912.544128
   1576,   16395.0684,  -299.144806,   912.544128
   1577,    16446.625,  -299.144806,   912.544128
   1578,   16498.1816,  -299.144806,   912.544128
   1579,   16549.7383,  -299.144806,   912.544128
   1580,   16601.2949,  -299.144806,   912.544128
   1581,   16652.8516,  -299.144806,   912.544128
   1582,   16704.4082,  -299.144806,   912.544128
   1583,   16755.9668,  -299.144806,   912.544128
   1584,   16807.5234,  -299.144806,   912.544128
   1585,   16859.0801,  -299.144806,   912.544128
   1586,    15312.375,  -299.144806,   912.544128
   1587,   15363.9316,  -299.144806,   912.544128
   1588,   15415.4883,  -299.144806,   912.544128
   1589,   15467.0459,  -299.144806,   912.544128
   1590,   15518.6025,  -299.144806,   912.544128
   1591,   15570.1592,  -299.144806,   912.544128
   1592,   15621.7158,  -299.144806,   912.544128
   1593,   15673.2725,  -299.144806,   912.544128
   1594,   15724.8291,  -299.144806,   912.544128
   1595,   15776.3867,  -299.144806,   912.544128
   1596,   15827.9434,  -299.144806,   912.544128
   1597,      15879.5,  -299.144806,   912.544128
   1598,   15931.0566,  -299.144806,   912.544128
   1599,   15982.6133,  -299.144806,   912.544128
   1600,   16034.1709,  -299.144806,   912.544128
   1601,   14487.4658,  -299.144806,   912.544128
   1602,   14539.0225,  -299.144806,   912.544128
   1603,   14590.5791,  -299.144806,   912.544128
   1604,   14642.1367,  -299.144806,   912.544128
   1605,   14693.6934,  -299.144806,   912.544128
   1606,     14745.25,  -299.144806,   912.544128
   1607,   14796.8066,  -299.144806,   912.544128
   1608,   14848.3633,  -299.144806,   912.544128
   1609,   14899.9209,  -299.144806,   912.544128
   1610,   14951.4775,  -299.144806,   912.544128
   1611,   15003.0342,  -299.144806,   912.544128
   1612,   15054.5908,  -299.144806,   912.544128
   1613,   15106.1475,  -299.144806,   912.544128
   1614,   15157.7041,  -299.144806,   912.544128
   1615,   15209.2617,  -299.144806,   912.544128
   1616,   13662.5566,  -299.144806,   912.544128
   1617,   13714.1133,  -299.144806,   912.544128
   1618,   13765.6709,  -299.144806,   912.544128
   1619,   13817.2275,  -299.144806,   912.544128
   1620,   13868.7842,  -299.144806,   912.544128
   1621,   13920.3408,  -299.144806,   912.544128
   1622,   13971.8975,  -299.144806,   912.544128
   1623,   14023.4541,  -299.144806,   912.544128
   1624,   14075.0117,  -299.144806,   912.544128
   1625,   14126.5684,  -299.144806,   912.544128
   1626,    14178.125,  -299.144806,   912.544128
   1627,   14229.6816,  -299.144806,   912.544128
   1628,   14281.2383,  -299.144806,   912.544128
   1629,   14332.7959,  -299.144806,   912.544128
   1630,   14384.3525,  -299.144806,   912.544128
   1631,   12837.6475,  -299.144806,   912.544128
   1632,   12889.2041,  -299.144806,   912.544128
   1633,   12940.7617,  -299.144806,   912.544128
   1634,   12992.3184,  -299.144806,   912.544128
   1635,    13043.875,  -299.144806,   912.544128
   1636,   13095.4316,  -299.144806,   912.544128
   1637,   13146.9883,  -299.144806,   912.544128
   1638,   13198.5459,  -299.144806,   912.544128
   1639,   13250.1025,  -299.144806,   912.544128
   1640,   13301.6592,  -299.144806,   912.544128
   1641,   13353.2158,  -299.144806,   912.544128
   1642,   13404.7725,  -299.144806,   912.544128
   1643,   13456.3291,  -299.144806,   912.544128
   1644,   13507.8867,  -299.144806,   912.544128
   1645,   13559.4434,  -299.144806,   912.544128
   1646,   12012.7383,  -299.144806,   912.544128
   1647,   12064.2959,  -299.144806,   912.544128
   1648,   12115.8525,  -299.144806,   912.544128
   1649,   12167.4092,  -299.144806,   912.544128
   1650,   12218.9658,  -299.144806,   912.544128
   1651,   12270.5225,  -299.144806,   912.544128
   1652,   12322.0791,  -299.144806,   912.544128
   1653,   12373.6367,  -299.144806,   912.544128
   1654,   12425.1934,  -299.144806,   912.544128
   1655,     12476.75,  -299.144806,   912.544128
   1656,   12528.3066,  -299.144806,   912.544128
   1657,   12579.8633,  -299.144806,   912.544128
   1658,   12631.4209,  -299.144806,   912.544128
   1659,   12682.9775,  -299.144806,   912.544128
   1660,   12734.5342,  -299.144806,   912.544128
   1661,   11187.8291,  -299.144806,   912.544128
   1662,   11239.3867,  -299.144806,   912.544128
   1663,   11290.9434,  -299.144806,   912.544128
   1664,      11342.5,  -299.144806,   912.544128
   1665,   11394.0566,  -299.144806,   912.544128
   1666,   11445.6133,  -299.144806,   912.544128
   1667,   11497.1709,  -299.144806,   912.544128
   1668,   11548.7275,  -299.144806,   912.544128
   1669,   11600.2842,  -299.144806,   912.544128
   1670,   11651.8408,  -299.144806,   912.544128
   1671,   11703.3975,  -299.144806,   912.544128
   1672,   11754.9541,  -299.144806,   912.544128
   1673,   11806.5117,  -299.144806,   912.544128
   1674,   11858.0684,  -299.144806,   912.544128
   1675,    11909.625,  -299.144806,   912.544128
   1676,   10362.9209,  -299.144806,   912.544128
   1677,   10414.4775,  -299.144806,   912.544128
   1678,   10466.0342,  -299.144806,   912.544128
   1679,   10517.5908,  -299.144806,   912.544128
   1680,   10569.1475,  -299.144806,   912.544128
   1681,   10620.7041,  -299.144806,   912.544128
   1682,   10672.2617,  -299.144806,   912.544128
   1683,   10723.8184,  -299.144806,   912.544128
   1684,    10775.375,  -299.144806,   912.544128
   1685,   10826.9316,  -299.144806,   912.544128
   1686,   10878.4883,  -299.144806,   912.544128
   1687,   10930.0459,  -299.144806,   912.544128
   1688,   10981.6025,  -299.144806,   912.544128
   1689,   11033.1592,  -299.144806,   912.544128
   1690,   11084.7158,  -299.144806,   912.544128
   1691,   9538.01172,  -299.144806,   912.544128
   1692,   9589.56836,  -299.144806,   912.544128
   1693,     9641.125,  -299.144806,   912.544128
   1694,   9692.68164,  -299.144806,   912.544128
   1695,   9744.23828,  -299.144806,   912.544128
   1696,    9795.7959,  -299.144806,   912.544128
   1697,   9847.35254,  -299.144806,   912.544128
   1698,   9898.90918,  -299.144806,   912.544128
   1699,   9950.46582,  -299.144806,   912.544128
   1700,   10002.0225,  -299.144806,   912.544128
   1701,   10053.5791,  -299.144806,   912.544128
   1702,   10105.1367,  -299.144806,   912.544128
   1703,   10156.6934,  -299.144806,   912.544128
   1704,     10208.25,  -299.144806,   912.544128
   1705,   10259.8066,  -299.144806,   912.544128
   1706,   9125.55664,  -299.144806,   912.544128
   1707,   9177.11328,  -299.144806,   912.544128
   1708,    9228.6709,  -299.144806,   912.544128
   1709,   9280.22754,  -299.144806,   912.544128
   1710,   9331.78418,  -299.144806,   912.544128
   1711,   9383.34082,  -299.144806,   912.544128
   1712,   9434.89746,  -299.144806,   912.544128
   1713,   8713.10254,  -299.144806,   912.544128
   1714,   8764.65918,  -299.144806,   912.544128
   1715,   8816.21582,  -299.144806,   912.544128
   1716,   8867.77246,  -299.144806,   912.544128
   1717,    8919.3291,  -299.144806,   912.544128
   1718,   8970.88672,  -299.144806,   912.544128
   1719,   9022.44336,  -299.144806,   912.544128
   1720,   7888.19336,  -299.144806,   912.544128
   1721,      7939.75,  -299.144806,   912.544128
   1722,   7991.30664,  -299.144806,   912.544128
   1723,   8042.86377,  -299.144806,   912.544128
   1724,   8094.42041,  -299.144806,   912.544128
   1725,   8145.97705,  -299.144806,   912.544128
   1726,   8197.53418,  -299.144806,   912.544128
   1727,   8249.09082,  -299.144806,   912.544128
   1728,   8300.64746,  -299.144806,   912.544128
   1729,    8352.2041,  -299.144806,   912.544128
   1730,   8403.76172,  -299.144806,   912.544128
   1731,   8455.31836,  -299.144806,   912.544128
   1732,     8506.875,  -299.144806,   912.544128
   1733,   8558.43164,  -299.144806,   912.544128
   1734,   8609.98828,  -299.144806,   912.544128
   1735,   7063.28418,  -299.144806,   912.544128
   1736,   7114.84082,  -299.144806,   912.544128
   1737,   7166.39795,  -299.144806,   912.544128
   1738,   7217.95459,  -299.144806,   912.544128
   1739,   7269.51123,  -299.144806,   912.544128
   1740,   7321.06836,  -299.144806,   912.544128
   1741,     7372.625,  -299.144806,   912.544128
   1742,   7424.18164,  -299.144806,   912.544128
   1743,   7475.73877,  -299.144806,   912.544128
   1744,   7527.29541,  -299.144806,   912.544128
   1745,   7578.85205,  -299.144806,   912.544128
   1746,   7630.40918,  -299.144806,   912.544128
   1747,   7681.96582,  -299.144806,   912.544128
   1748,   7733.52295,  -299.144806,   912.544128
   1749,   7785.07959,  -299.144806,   912.544128
   1750,     6238.375,  -299.144806,   912.544128
   1751,   6289.93164,  -299.144806,   912.544128
   1752,   6341.48877,  -299.144806,   912.544128
   1753,   6393.04541,  -299.144806,   912.544128
   1754,   6444.60205,  -299.144806,   912.544128
   1755,   6496.15918,  -299.144806,   912.544128
   1756,   6547.71582,  -299.144806,   912.544128
   1757,   6599.27295,  -299.144806,   912.544128
   1758,   6650.82959,  -299.144806,   912.544128
   1759,   6702.38623,  -299.144806,   912.544128
   1760,   6753.94336,  -299.144806,   912.544128
   1761,       6805.5,  -299.144806,   912.544128
   1762,   6857.05664,  -299.144806,   912.544128
   1763,   6908.61377,  -299.144806,   912.544128
   1764,   6960.17041,  -299.144806,   912.544128
   1765,   5413.46582,  -299.144806,   912.544128
   1766,   5465.02295,  -299.144806,   912.544128
   1767,   5516.57959,  -299.144806,   912.544128
   1768,   5568.13623,  -299.144806,   912.544128
   1769,   5619.69336,  -299.144806,   912.544128
   1770,      5671.25,  -299.144806,   912.544128
   1771,   5722.80664,  -299.144806,   912.544128
   1772,   5774.36377,  -299.144806,   912.544128
   1773,   5825.92041,  -299.144806,   912.544128
   1774,   5877.47705,  -299.144806,   912.544128
   1775,   5929.03418,  -299.144806,   912.544128
   1776,   5980.59082,  -299.144806,   912.544128
   1777,   6032.14795,  -299.144806,   912.544128
   1778,   6083.70459,  -299.144806,   912.544128
   1779,   6135.26123,  -299.144806,   912.544128
   1780,   4588.55664,  -299.144806,   912.544128
   1781,   4640.11377,  -299.144806,   912.544128
   1782,   4691.67041,  -299.144806,   912.544128
   1783,   4743.22705,  -299.144806,   912.544128
   1784,   4794.78418,  -299.144806,   912.544128
   1785,   4846.34082,  -299.144806,   912.544128
   1786,   4897.89795,  -299.144806,   912.544128
   1787,   4949.45459,  -299.144806,   912.544128
   1788,   5001.01123,  -299.144806,   912.544128
   1789,   5052.56836,  -299.144806,   912.544128
   1790,     5104.125,  -299.144806,   912.544128
   1791,   5155.68164,  -299.144806,   912.544128
   1792,   5207.23877,  -299.144806,   912.544128
   1793,   5258.79541,  -299.144806,   912.544128
   1794,   5310.35205,  -299.144806,   912.544128
   1795,   3763.64771,  -299.144806,   912.544128
   1796,   3815.20459,  -299.144806,   912.544128
   1797,   3866.76147,  -299.144806,   912.544128
   1798,   3918.31812,  -299.144806,   912.544128
   1799,     3969.875,  -299.144806,   912.544128
   1800,   4021.43188,  -299.144806,   912.544128
   1801,   4072.98853,  -299.144806,   912.544128
   1802,   4124.54541,  -299.144806,   912.544128
   1803,   4176.10205,  -299.144806,   912.544128
   1804,   4227.65918,  -299.144806,   912.544128
   1805,   4279.21582,  -299.144806,   912.544128
   1806,   4330.77295,  -299.144806,   912.544128
   1807,   4382.32959,  -299.144806,   912.544128
   1808,   4433.88623,  -299.144806,   912.544128
   1809,   4485.44336,  -299.144806,   912.544128
   1810,   2938.73853,  -299.144806,   912.544128
   1811,   2990.29541,  -299.144806,   912.544128
   1812,   3041.85229,  -299.144806,   912.544128
   1813,   3093.40918,  -299.144806,   912.544128
   1814,   3144.96582,  -299.144806,   912.544128
   1815,   3196.52271,  -299.144806,   912.544128
   1816,   3248.07959,  -299.144806,   912.544128
   1817,   3299.63647,  -299.144806,   912.544128
   1818,   3351.19312,  -299.144806,   912.544128
   1819,      3402.75,  -299.144806,   912.544128
   1820,   3454.30688,  -299.144806,   912.544128
   1821,   3505.86353,  -299.144806,   912.544128
   1822,   3557.42041,  -299.144806,   912.544128
   1823,   3608.97729,  -299.144806,   912.544128
   1824,   3660.53418,  -299.144806,   912.544128
   1825,   2113.82959,  -299.144806,   912.544128
   1826,   2165.38647,  -299.144806,   912.544128
   1827,   2216.94312,  -299.144806,   912.544128
   1828,       2268.5,  -299.144806,   912.544128
   1829,   2320.05688,  -299.144806,   912.544128
   1830,   2371.61353,  -299.144806,   912.544128
   1831,   2423.17041,  -299.144806,   912.544128
   1832,   2474.72729,  -299.144806,   912.544128
   1833,   2526.28418,  -299.144806,   912.544128
   1834,   2577.84082,  -299.144806,   912.544128
   1835,   2629.39771,  -299.144806,   912.544128
   1836,   2680.95459,  -299.144806,   912.544128
   1837,   2732.51147,  -299.144806,   912.544128
   1838,   2784.06812,  -299.144806,   912.544128
   1839,     2835.625,  -299.144806,   912.544128
   1840,   1288.92041,  -299.144806,   912.544128
   1841,   1340.47729,  -299.144806,   912.544128
   1842,   1392.03406,  -299.144806,   912.544128
   1843,   1443.59094,  -299.144806,   912.544128
   1844,   1495.14771,  -299.144806,   912.544128
   1845,   1546.70459,  -299.144806,   912.544128
   1846,   1598.26135,  -299.144806,   912.544128
   1847,   1649.81824,  -299.144806,   912.544128
   1848,     1701.375,  -299.144806,   912.544128
   1849,   1752.93176,  -299.144806,   912.544128
   1850,   1804.48865,  -299.144806,   912.544128
   1851,   1856.04541,  -299.144806,   912.544128
   1852,   1907.60229,  -299.144806,   912.544128
   1853,   1959.15906,  -299.144806,   912.544128
   1854,   2010.71594,  -299.144806,   912.544128
   1855,   464.011353,  -299.144806,   912.544128
   1856,   515.568176,  -299.144806,   912.544128
   1857,      567.125,  -299.144806,   912.544128
   1858,   618.681824,  -299.144806,   912.544128
   1859,   670.238647,  -299.144806,   912.544128
   1860,   721.795471,  -299.144806,   912.544128
   1861,   773.352295,  -299.144806,   912.544128
   1862,   824.909119,  -299.144806,   912.544128
   1863,   876.465881,  -299.144806,   912.544128
   1864,   928.022705,  -299.144806,   912.544128
   1865,   979.579529,  -299.144806,   912.544128
   1866,   1031.13635,  -299.144806,   912.544128
   1867,   1082.69324,  -299.144806,   912.544128
   1868,      1134.25,  -299.144806,   912.544128
   1869,   1185.80676,  -299.144806,   912.544128
   1870,   51.5568199,  -299.144806,   912.544128
   1871,    103.11364,  -299.144806,   912.544128
   1872,   154.670456,  -299.144806,   912.544128
   1873,    206.22728,  -299.144806,   912.544128
   1874,   257.784088,  -299.144806,   912.544128
   1875,   309.340912,  -299.144806,   912.544128
   1876,   360.897736,  -299.144806,   912.544128
   1877,       13611.,   2134.36011,   466.170898
   1878,       13611.,   2134.36011,   515.571838
   1879,       13611.,   2134.36011,   564.972717
   1880,       13611.,   2134.36011,   614.373657
   1881,       13611.,   2134.36011,   663.774536
   1882,       13611.,   2134.36011,   713.175476
   1883,       13611.,   2134.36011,   762.576355
   1884,       13611.,   2134.36011,   811.977295
   1885,       13611.,   2134.36011,   861.378174
   1886,       13611.,   2134.36011,   910.779114
   1887,       13611.,   2134.36011,   960.179993
   1888,       13611.,   2134.36011,   1009.58093
   1889,       13611.,   2134.36011,   1058.98181
   1890,       13611.,   2134.36011,   1108.38269
   1891,       13611.,   2134.36011,   1157.78369
   1892,       13611.,   2134.36011,   1207.18457
   1893,       13611.,   2134.36011,   1256.58545
   1894,       13611.,   2134.36011,   1305.98633
   1895,       13611.,   2134.36011,   1355.38733
   1896,       13611.,   2134.36011,   1404.78821
   1897,       13611.,   2134.36011,   1454.18909
   1898,       13611.,   2134.36011,   1503.58997
   1899,       13611.,   2134.36011,   1552.99097
   1900,       13611.,   2134.36011,   1602.39185
   1901,       13611.,   2134.36011,   1651.79272
   1902,       13611.,   2134.36011,    1701.1936
   1903,       13611.,   2134.36011,    1750.5946
   1904,       13611.,   2134.36011,   1799.99548
   1905,       13611.,   2134.36011,   1849.39636
   1906,       13611.,   2134.36011,   1898.79724
   1907,       13611.,   2134.36011,   1948.19824
   1908,       13611.,   2134.36011,   1997.59912
   1909,       13611.,   2134.36011,   52.0962486
   1910,       13611.,   2134.36011,   104.192497
   1911,       13611.,   2134.36011,   156.288757
   1912,       13611.,   2134.36011,   208.384995
   1913,       13611.,   2134.36011,   260.481262
   1914,       13611.,   2134.36011,   312.577515
   1915,       13611.,   2134.36011,   364.673737
   1916,       13611.,           0.,   968.666687
   1917,       13611.,           0.,   1010.33331
   1918,       13611.,           0.,   48.7894745
   1919,       13611.,           0.,    97.578949
   1920,       13611.,           0.,   146.368423
   1921,       13611.,           0.,   195.157898
   1922,       13611.,           0.,   243.947372
   1923,       13611.,           0.,   292.736847
   1924,       13611.,           0.,   341.526306
   1925,       13611.,           0.,   390.315796
   1926,       13611.,           0.,   439.105255
   1927,       13611.,           0.,   487.894745
   1928,       13611.,           0.,   536.684204
   1929,       13611.,           0.,   585.473694
   1930,       13611.,           0.,   634.263184
   1931,       13611.,           0.,   683.052612
   1932,       13611.,           0.,   731.842102
   1933,       13611.,           0.,   780.631592
   1934,       13611.,           0.,   829.421082
   1935,       13611.,           0.,    878.21051
   1936,        9074.,   2134.36011,   466.170898
   1937,        9074.,   2134.36011,   515.571838
   1938,        9074.,   2134.36011,   564.972717
   1939,        9074.,   2134.36011,   614.373657
   1940,        9074.,   2134.36011,   663.774536
   1941,        9074.,   2134.36011,   713.175476
   1942,        9074.,   2134.36011,   762.576355
   1943,        9074.,   2134.36011,   811.977295
   1944,        9074.,   2134.36011,   861.378174
   1945,        9074.,   2134.36011,   910.779114
   1946,        9074.,   2134.36011,   960.179993
   1947,        9074.,   2134.36011,   1009.58093
   1948,        9074.,   2134.36011,   1058.98181
   1949,        9074.,   2134.36011,   1108.38269
   1950,        9074.,   2134.36011,   1157.78369
   1951,        9074.,   2134.36011,   1207.18457
   1952,        9074.,   2134.36011,   1256.58545
   1953,        9074.,   2134.36011,   1305.98633
   1954,        9074.,   2134.36011,   1355.38733
   1955,        9074.,   2134.36011,   1404.78821
   1956,        9074.,   2134.36011,   1454.18909
   1957,        9074.,   2134.36011,   1503.58997
   1958,        9074.,   2134.36011,   1552.99097
   1959,        9074.,   2134.36011,   1602.39185
   1960,        9074.,   2134.36011,   1651.79272
   1961,        9074.,   2134.36011,    1701.1936
   1962,        9074.,   2134.36011,    1750.5946
   1963,        9074.,   2134.36011,   1799.99548
   1964,        9074.,   2134.36011,   1849.39636
   1965,        9074.,   2134.36011,   1898.79724
   1966,        9074.,   2134.36011,   1948.19824
   1967,        9074.,   2134.36011,   1997.59912
   1968,        9074.,   2134.36011,   52.0962486
   1969,        9074.,   2134.36011,   104.192497
   1970,        9074.,   2134.36011,   156.288757
   1971,        9074.,   2134.36011,   208.384995
   1972,        9074.,   2134.36011,   260.481262
   1973,        9074.,   2134.36011,   312.577515
   1974,        9074.,   2134.36011,   364.673737
   1975,        9074.,           0.,   968.666687
   1976,        9074.,           0.,   1010.33331
   1977,        9074.,           0.,   48.7894745
   1978,        9074.,           0.,    97.578949
   1979,        9074.,           0.,   146.368423
   1980,        9074.,           0.,   195.157898
   1981,        9074.,           0.,   243.947372
   1982,        9074.,           0.,   292.736847
   1983,        9074.,           0.,   341.526306
   1984,        9074.,           0.,   390.315796
   1985,        9074.,           0.,   439.105255
   1986,        9074.,           0.,   487.894745
   1987,        9074.,           0.,   536.684204
   1988,        9074.,           0.,   585.473694
   1989,        9074.,           0.,   634.263184
   1990,        9074.,           0.,   683.052612
   1991,        9074.,           0.,   731.842102
   1992,        9074.,           0.,   780.631592
   1993,        9074.,           0.,   829.421082
   1994,        9074.,           0.,    878.21051
   1995,        4537.,   2134.36011,   466.170898
   1996,        4537.,   2134.36011,   515.571838
   1997,        4537.,   2134.36011,   564.972717
   1998,        4537.,   2134.36011,   614.373657
   1999,        4537.,   2134.36011,   663.774536
   2000,        4537.,   2134.36011,   713.175476
   2001,        4537.,   2134.36011,   762.576355
   2002,        4537.,   2134.36011,   811.977295
   2003,        4537.,   2134.36011,   861.378174
   2004,        4537.,   2134.36011,   910.779114
   2005,        4537.,   2134.36011,   960.179993
   2006,        4537.,   2134.36011,   1009.58093
   2007,        4537.,   2134.36011,   1058.98181
   2008,        4537.,   2134.36011,   1108.38269
   2009,        4537.,   2134.36011,   1157.78369
   2010,        4537.,   2134.36011,   1207.18457
   2011,        4537.,   2134.36011,   1256.58545
   2012,        4537.,   2134.36011,   1305.98633
   2013,        4537.,   2134.36011,   1355.38733
   2014,        4537.,   2134.36011,   1404.78821
   2015,        4537.,   2134.36011,   1454.18909
   2016,        4537.,   2134.36011,   1503.58997
   2017,        4537.,   2134.36011,   1552.99097
   2018,        4537.,   2134.36011,   1602.39185
   2019,        4537.,   2134.36011,   1651.79272
   2020,        4537.,   2134.36011,    1701.1936
   2021,        4537.,   2134.36011,    1750.5946
   2022,        4537.,   2134.36011,   1799.99548
   2023,        4537.,   2134.36011,   1849.39636
   2024,        4537.,   2134.36011,   1898.79724
   2025,        4537.,   2134.36011,   1948.19824
   2026,        4537.,   2134.36011,   1997.59912
   2027,        4537.,   2134.36011,   52.0962486
   2028,        4537.,   2134.36011,   104.192497
   2029,        4537.,   2134.36011,   156.288757
   2030,        4537.,   2134.36011,   208.384995
   2031,        4537.,   2134.36011,   260.481262
   2032,        4537.,   2134.36011,   312.577515
   2033,        4537.,   2134.36011,   364.673737
   2034,        4537.,           0.,   968.666687
   2035,        4537.,           0.,   1010.33331
   2036,        4537.,           0.,   48.7894745
   2037,        4537.,           0.,    97.578949
   2038,        4537.,           0.,   146.368423
   2039,        4537.,           0.,   195.157898
   2040,        4537.,           0.,   243.947372
   2041,        4537.,           0.,   292.736847
   2042,        4537.,           0.,   341.526306
   2043,        4537.,           0.,   390.315796
   2044,        4537.,           0.,   439.105255
   2045,        4537.,           0.,   487.894745
   2046,        4537.,           0.,   536.684204
   2047,        4537.,           0.,   585.473694
   2048,        4537.,           0.,   634.263184
   2049,        4537.,           0.,   683.052612
   2050,        4537.,           0.,   731.842102
   2051,        4537.,           0.,   780.631592
   2052,        4537.,           0.,   829.421082
   2053,        4537.,           0.,    878.21051
   2054,           0.,   2134.36011,   466.170898
   2055,           0.,   2134.36011,   515.571838
   2056,           0.,   2134.36011,   564.972717
   2057,           0.,   2134.36011,   614.373657
   2058,           0.,   2134.36011,   663.774536
   2059,           0.,   2134.36011,   713.175476
   2060,           0.,   2134.36011,   762.576355
   2061,           0.,   2134.36011,   811.977295
   2062,           0.,   2134.36011,   861.378174
   2063,           0.,   2134.36011,   910.779114
   2064,           0.,   2134.36011,   960.179993
   2065,           0.,   2134.36011,   1009.58093
   2066,           0.,   2134.36011,   1058.98181
   2067,           0.,   2134.36011,   1108.38269
   2068,           0.,   2134.36011,   1157.78369
   2069,           0.,   2134.36011,   1207.18457
   2070,           0.,   2134.36011,   1256.58545
   2071,           0.,   2134.36011,   1305.98633
   2072,           0.,   2134.36011,   1355.38733
   2073,           0.,   2134.36011,   1404.78821
   2074,           0.,   2134.36011,   1454.18909
   2075,           0.,   2134.36011,   1503.58997
   2076,           0.,   2134.36011,   1552.99097
   2077,           0.,   2134.36011,   1602.39185
   2078,           0.,   2134.36011,   1651.79272
   2079,           0.,   2134.36011,    1701.1936
   2080,           0.,   2134.36011,    1750.5946
   2081,           0.,   2134.36011,   1799.99548
   2082,           0.,   2134.36011,   1849.39636
   2083,           0.,   2134.36011,   1898.79724
   2084,           0.,   2134.36011,   1948.19824
   2085,           0.,   2134.36011,   1997.59912
   2086,           0.,   2134.36011,   52.0962486
   2087,           0.,   2134.36011,   104.192497
   2088,           0.,   2134.36011,   156.288757
   2089,           0.,   2134.36011,   208.384995
   2090,           0.,   2134.36011,   260.481262
   2091,           0.,   2134.36011,   312.577515
   2092,           0.,   2134.36011,   364.673737
   2093,           0.,           0.,   968.666687
   2094,           0.,           0.,   1010.33331
   2095,           0.,           0.,   48.7894745
   2096,           0.,           0.,    97.578949
   2097,           0.,           0.,   146.368423
   2098,           0.,           0.,   195.157898
   2099,           0.,           0.,   243.947372
   2100,           0.,           0.,   292.736847
   2101,           0.,           0.,   341.526306
   2102,           0.,           0.,   390.315796
   2103,           0.,           0.,   439.105255
   2104,           0.,           0.,   487.894745
   2105,           0.,           0.,   536.684204
   2106,           0.,           0.,   585.473694
   2107,           0.,           0.,   634.263184
   2108,           0.,           0.,   683.052612
   2109,           0.,           0.,   731.842102
   2110,           0.,           0.,   780.631592
   2111,           0.,           0.,   829.421082
   2112,           0.,           0.,    878.21051
   2113,       18148.,   48.5081825,    915.40387
   2114,       18148.,   97.0163651,   903.807739
   2115,       18148.,   145.524551,   892.211609
   2116,       18148.,    194.03273,   880.615479
   2117,       18148.,   242.540909,   869.019348
   2118,       18148.,   291.049103,   857.423157
   2119,       18148.,   339.557281,   845.827026
   2120,       18148.,    388.06546,   834.230896
   2121,       18148.,   436.573639,   822.634766
   2122,       18148.,   485.081818,   811.038635
   2123,       18148.,   533.590027,   799.442505
   2124,       18148.,   582.098206,   787.846375
   2125,       18148.,   630.606384,   776.250244
   2126,       18148.,   679.114563,   764.654114
   2127,       18148.,   727.622742,   753.057983
   2128,       18148.,    776.13092,   741.461792
   2129,       18148.,   824.639099,   729.865662
   2130,       18148.,   873.147278,   718.269531
   2131,       18148.,   921.655457,   706.673401
   2132,       18148.,   970.163635,   695.077271
   2133,       18148.,   1018.67181,    683.48114
   2134,       18148.,   1067.18005,    671.88501
   2135,       18148.,   1115.68823,   660.288879
   2136,       18148.,   1164.19641,   648.692749
   2137,       18148.,   1212.70459,   637.096619
   2138,       18148.,   1261.21277,   625.500427
   2139,       18148.,   1309.72095,   613.904297
   2140,       18148.,   1358.22913,   602.308167
   2141,       18148.,    1406.7373,   590.712036
   2142,       18148.,   1455.24548,   579.115906
   2143,       18148.,   1503.75366,   567.519775
   2144,       18148.,   1552.26184,   555.923645
   2145,       18148.,   1600.77002,   544.327515
   2146,       18148.,    1649.2782,   532.731384
   2147,       18148.,   1697.78638,   521.135254
   2148,       18148.,   1746.29456,   509.539093
   2149,       18148.,   1794.80273,   497.942963
   2150,       18148.,   1843.31091,   486.346832
   2151,       18148.,   1891.81909,   474.750671
   2152,       18148.,   1940.32727,   463.154541
   2153,       18148.,   1988.83545,   451.558411
   2154,       18148.,   2037.34363,    439.96228
   2155,       18148.,   2085.85181,    428.36615
   2156,       13611.,   48.5081825,    915.40387
   2157,       13611.,   97.0163651,   903.807739
   2158,       13611.,   145.524551,   892.211609
   2159,       13611.,    194.03273,   880.615479
   2160,       13611.,   242.540909,   869.019348
   2161,       13611.,   291.049103,   857.423157
   2162,       13611.,   339.557281,   845.827026
   2163,       13611.,    388.06546,   834.230896
   2164,       13611.,   436.573639,   822.634766
   2165,       13611.,   485.081818,   811.038635
   2166,       13611.,   533.590027,   799.442505
   2167,       13611.,   582.098206,   787.846375
   2168,       13611.,   630.606384,   776.250244
   2169,       13611.,   679.114563,   764.654114
   2170,       13611.,   727.622742,   753.057983
   2171,       13611.,    776.13092,   741.461792
   2172,       13611.,   824.639099,   729.865662
   2173,       13611.,   873.147278,   718.269531
   2174,       13611.,   921.655457,   706.673401
   2175,       13611.,   970.163635,   695.077271
   2176,       13611.,   1018.67181,    683.48114
   2177,       13611.,   1067.18005,    671.88501
   2178,       13611.,   1115.68823,   660.288879
   2179,       13611.,   1164.19641,   648.692749
   2180,       13611.,   1212.70459,   637.096619
   2181,       13611.,   1261.21277,   625.500427
   2182,       13611.,   1309.72095,   613.904297
   2183,       13611.,   1358.22913,   602.308167
   2184,       13611.,    1406.7373,   590.712036
   2185,       13611.,   1455.24548,   579.115906
   2186,       13611.,   1503.75366,   567.519775
   2187,       13611.,   1552.26184,   555.923645
   2188,       13611.,   1600.77002,   544.327515
   2189,       13611.,    1649.2782,   532.731384
   2190,       13611.,   1697.78638,   521.135254
   2191,       13611.,   1746.29456,   509.539093
   2192,       13611.,   1794.80273,   497.942963
   2193,       13611.,   1843.31091,   486.346832
   2194,       13611.,   1891.81909,   474.750671
   2195,       13611.,   1940.32727,   463.154541
   2196,       13611.,   1988.83545,   451.558411
   2197,       13611.,   2037.34363,    439.96228
   2198,       13611.,   2085.85181,    428.36615
   2199,        9074.,   48.5081825,    915.40387
   2200,        9074.,   97.0163651,   903.807739
   2201,        9074.,   145.524551,   892.211609
   2202,        9074.,    194.03273,   880.615479
   2203,        9074.,   242.540909,   869.019348
   2204,        9074.,   291.049103,   857.423157
   2205,        9074.,   339.557281,   845.827026
   2206,        9074.,    388.06546,   834.230896
   2207,        9074.,   436.573639,   822.634766
   2208,        9074.,   485.081818,   811.038635
   2209,        9074.,   533.590027,   799.442505
   2210,        9074.,   582.098206,   787.846375
   2211,        9074.,   630.606384,   776.250244
   2212,        9074.,   679.114563,   764.654114
   2213,        9074.,   727.622742,   753.057983
   2214,        9074.,    776.13092,   741.461792
   2215,        9074.,   824.639099,   729.865662
   2216,        9074.,   873.147278,   718.269531
   2217,        9074.,   921.655457,   706.673401
   2218,        9074.,   970.163635,   695.077271
   2219,        9074.,   1018.67181,    683.48114
   2220,        9074.,   1067.18005,    671.88501
   2221,        9074.,   1115.68823,   660.288879
   2222,        9074.,   1164.19641,   648.692749
   2223,        9074.,   1212.70459,   637.096619
   2224,        9074.,   1261.21277,   625.500427
   2225,        9074.,   1309.72095,   613.904297
   2226,        9074.,   1358.22913,   602.308167
   2227,        9074.,    1406.7373,   590.712036
   2228,        9074.,   1455.24548,   579.115906
   2229,        9074.,   1503.75366,   567.519775
   2230,        9074.,   1552.26184,   555.923645
   2231,        9074.,   1600.77002,   544.327515
   2232,        9074.,    1649.2782,   532.731384
   2233,        9074.,   1697.78638,   521.135254
   2234,        9074.,   1746.29456,   509.539093
   2235,        9074.,   1794.80273,   497.942963
   2236,        9074.,   1843.31091,   486.346832
   2237,        9074.,   1891.81909,   474.750671
   2238,        9074.,   1940.32727,   463.154541
   2239,        9074.,   1988.83545,   451.558411
   2240,        9074.,   2037.34363,    439.96228
   2241,        9074.,   2085.85181,    428.36615
   2242,        4537.,   48.5081825,    915.40387
   2243,        4537.,   97.0163651,   903.807739
   2244,        4537.,   145.524551,   892.211609
   2245,        4537.,    194.03273,   880.615479
   2246,        4537.,   242.540909,   869.019348
   2247,        4537.,   291.049103,   857.423157
   2248,        4537.,   339.557281,   845.827026
   2249,        4537.,    388.06546,   834.230896
   2250,        4537.,   436.573639,   822.634766
   2251,        4537.,   485.081818,   811.038635
   2252,        4537.,   533.590027,   799.442505
   2253,        4537.,   582.098206,   787.846375
   2254,        4537.,   630.606384,   776.250244
   2255,        4537.,   679.114563,   764.654114
   2256,        4537.,   727.622742,   753.057983
   2257,        4537.,    776.13092,   741.461792
   2258,        4537.,   824.639099,   729.865662
   2259,        4537.,   873.147278,   718.269531
   2260,        4537.,   921.655457,   706.673401
   2261,        4537.,   970.163635,   695.077271
   2262,        4537.,   1018.67181,    683.48114
   2263,        4537.,   1067.18005,    671.88501
   2264,        4537.,   1115.68823,   660.288879
   2265,        4537.,   1164.19641,   648.692749
   2266,        4537.,   1212.70459,   637.096619
   2267,        4537.,   1261.21277,   625.500427
   2268,        4537.,   1309.72095,   613.904297
   2269,        4537.,   1358.22913,   602.308167
   2270,        4537.,    1406.7373,   590.712036
   2271,        4537.,   1455.24548,   579.115906
   2272,        4537.,   1503.75366,   567.519775
   2273,        4537.,   1552.26184,   555.923645
   2274,        4537.,   1600.77002,   544.327515
   2275,        4537.,    1649.2782,   532.731384
   2276,        4537.,   1697.78638,   521.135254
   2277,        4537.,   1746.29456,   509.539093
   2278,        4537.,   1794.80273,   497.942963
   2279,        4537.,   1843.31091,   486.346832
   2280,        4537.,   1891.81909,   474.750671
   2281,        4537.,   1940.32727,   463.154541
   2282,        4537.,   1988.83545,   451.558411
   2283,        4537.,   2037.34363,    439.96228
   2284,        4537.,   2085.85181,    428.36615
   2285,           0.,   48.5081825,    915.40387
   2286,           0.,   97.0163651,   903.807739
   2287,           0.,   145.524551,   892.211609
   2288,           0.,    194.03273,   880.615479
   2289,           0.,   242.540909,   869.019348
   2290,           0.,   291.049103,   857.423157
   2291,           0.,   339.557281,   845.827026
   2292,           0.,    388.06546,   834.230896
   2293,           0.,   436.573639,   822.634766
   2294,           0.,   485.081818,   811.038635
   2295,           0.,   533.590027,   799.442505
   2296,           0.,   582.098206,   787.846375
   2297,           0.,   630.606384,   776.250244
   2298,           0.,   679.114563,   764.654114
   2299,           0.,   727.622742,   753.057983
   2300,           0.,    776.13092,   741.461792
   2301,           0.,   824.639099,   729.865662
   2302,           0.,   873.147278,   718.269531
   2303,           0.,   921.655457,   706.673401
   2304,           0.,   970.163635,   695.077271
   2305,           0.,   1018.67181,    683.48114
   2306,           0.,   1067.18005,    671.88501
   2307,           0.,   1115.68823,   660.288879
   2308,           0.,   1164.19641,   648.692749
   2309,           0.,   1212.70459,   637.096619
   2310,           0.,   1261.21277,   625.500427
   2311,           0.,   1309.72095,   613.904297
   2312,           0.,   1358.22913,   602.308167
   2313,           0.,    1406.7373,   590.712036
   2314,           0.,   1455.24548,   579.115906
   2315,           0.,   1503.75366,   567.519775
   2316,           0.,   1552.26184,   555.923645
   2317,           0.,   1600.77002,   544.327515
   2318,           0.,    1649.2782,   532.731384
   2319,           0.,   1697.78638,   521.135254
   2320,           0.,   1746.29456,   509.539093
   2321,           0.,   1794.80273,   497.942963
   2322,           0.,   1843.31091,   486.346832
   2323,           0.,   1891.81909,   474.750671
   2324,           0.,   1940.32727,   463.154541
   2325,           0.,   1988.83545,   451.558411
   2326,           0.,   2037.34363,    439.96228
   2327,           0.,   2085.85181,    428.36615
*Element, type=B31
1,   1, 141
2, 141, 142
3, 142, 143
4, 143, 144
5, 144, 145
6, 145, 146
7, 146, 147
8, 147,   2
 9,   2, 148
10, 148, 149
11, 149, 150
12, 150, 151
13, 151, 152
14, 152, 153
15, 153, 154
16, 154, 155
17, 155, 156
18, 156,   3
19,   4, 157
20, 157, 158
21, 158, 159
22, 159, 160
23, 160, 161
24, 161, 162
25, 162, 163
26, 163, 164
27, 164, 165
28, 165, 166
29, 166, 167
30, 167, 168
31, 168, 169
32, 169, 170
33, 170, 171
34, 171,   1
35,   5, 172
36, 172, 173
37, 173, 174
38, 174, 175
39, 175, 176
40, 176, 177
41, 177,   2
42,   6, 178
43, 178, 179
44, 179, 180
45, 180, 181
46, 181, 182
47, 182, 183
48, 183, 184
49, 184, 185
50, 185, 186
51, 186, 187
52, 187, 188
53, 188, 189
54, 189, 190
55, 190, 191
56, 191, 192
57, 192,   4
58,   7, 193
59, 193, 194
60, 194, 195
61, 195, 196
62, 196, 197
63, 197, 198
64, 198, 199
65, 199, 200
66, 200, 201
67, 201, 202
68, 202, 203
69, 203, 204
70, 204, 205
71, 205, 206
72, 206, 207
73, 207,   6
74,   8, 208
75, 208, 209
76, 209, 210
77, 210, 211
78, 211, 212
79, 212, 213
80, 213, 214
81, 214, 215
82, 215, 216
83, 216, 217
84, 217, 218
85, 218, 219
86, 219, 220
87, 220, 221
88, 221, 222
89, 222,   7
 90,   9, 223
 91, 223, 224
 92, 224, 225
 93, 225, 226
 94, 226, 227
 95, 227, 228
 96, 228, 229
 97, 229, 230
 98, 230, 231
 99, 231, 232
100, 232, 233
101, 233, 234
102, 234, 235
103, 235, 236
104, 236, 237
105, 237,   8
106,  10, 238
107, 238, 239
108, 239, 240
109, 240, 241
110, 241, 242
111, 242, 243
112, 243, 244
113, 244, 245
114, 245, 246
115, 246, 247
116, 247, 248
117, 248, 249
118, 249, 250
119, 250, 251
120, 251, 252
121, 252,   9
122,  11, 253
123, 253, 254
124, 254, 255
125, 255, 256
126, 256, 257
127, 257, 258
128, 258, 259
129, 259, 260
130, 260, 261
131, 261, 262
132, 262, 263
133, 263, 264
134, 264, 265
135, 265, 266
136, 266, 267
137, 267,  10
138,  12, 268
139, 268, 269
140, 269, 270
141, 270, 271
142, 271, 272
143, 272, 273
144, 273, 274
145, 274, 275
146, 275, 276
147, 276, 277
148, 277, 278
149, 278, 279
150, 279, 280
151, 280, 281
152, 281, 282
153, 282,  11
154,  13, 283
155, 283, 284
156, 284, 285
157, 285, 286
158, 286, 287
159, 287, 288
160, 288, 289
161, 289, 290
162, 290, 291
163, 291, 292
164, 292, 293
165, 293, 294
166, 294, 295
167, 295, 296
168, 296, 297
169, 297,  12
170,  14, 298
171, 298, 299
172, 299, 300
173, 300, 301
174, 301, 302
175, 302, 303
176, 303, 304
177, 304, 305
178, 305, 306
179, 306, 307
180, 307, 308
181, 308, 309
182, 309, 310
183, 310, 311
184, 311, 312
185, 312,  13
186,  15, 313
187, 313, 314
188, 314, 315
189, 315, 316
190, 316, 317
191, 317, 318
192, 318, 319
193, 319,  14
194,  16, 320
195, 320, 321
196, 321, 322
197, 322, 323
198, 323, 324
199, 324, 325
200, 325, 326
201, 326,  15
202,  17, 327
203, 327, 328
204, 328, 329
205, 329, 330
206, 330, 331
207, 331, 332
208, 332, 333
209, 333, 334
210, 334, 335
211, 335, 336
212, 336, 337
213, 337, 338
214, 338, 339
215, 339, 340
216, 340, 341
217, 341,  16
218,  18, 342
219, 342, 343
220, 343, 344
221, 344, 345
222, 345, 346
223, 346, 347
224, 347, 348
225, 348, 349
226, 349, 350
227, 350, 351
228, 351, 352
229, 352, 353
230, 353, 354
231, 354, 355
232, 355, 356
233, 356,  17
234,  19, 357
235, 357, 358
236, 358, 359
237, 359, 360
238, 360, 361
239, 361, 362
240, 362, 363
241, 363, 364
242, 364, 365
243, 365, 366
244, 366, 367
245, 367, 368
246, 368, 369
247, 369, 370
248, 370, 371
249, 371,  18
250,  20, 372
251, 372, 373
252, 373, 374
253, 374, 375
254, 375, 376
255, 376, 377
256, 377, 378
257, 378, 379
258, 379, 380
259, 380, 381
260, 381, 382
261, 382, 383
262, 383, 384
263, 384, 385
264, 385, 386
265, 386,  19
266,  21, 387
267, 387, 388
268, 388, 389
269, 389, 390
270, 390, 391
271, 391, 392
272, 392, 393
273, 393, 394
274, 394, 395
275, 395, 396
276, 396, 397
277, 397, 398
278, 398, 399
279, 399, 400
280, 400, 401
281, 401,  20
282,  22, 402
283, 402, 403
284, 403, 404
285, 404, 405
286, 405, 406
287, 406, 407
288, 407, 408
289, 408, 409
290, 409, 410
291, 410, 411
292, 411, 412
293, 412, 413
294, 413, 414
295, 414, 415
296, 415, 416
297, 416,  21
298,  23, 417
299, 417, 418
300, 418, 419
301, 419, 420
302, 420, 421
303, 421, 422
304, 422, 423
305, 423, 424
306, 424, 425
307, 425, 426
308, 426, 427
309, 427, 428
310, 428, 429
311, 429, 430
312, 430, 431
313, 431,  22
314,  24, 432
315, 432, 433
316, 433, 434
317, 434, 435
318, 435, 436
319, 436, 437
320, 437, 438
321, 438, 439
322, 439, 440
323, 440, 441
324, 441, 442
325, 442, 443
326, 443, 444
327, 444, 445
328, 445, 446
329, 446,  23
330,  25, 447
331, 447, 448
332, 448, 449
333, 449, 450
334, 450, 451
335, 451, 452
336, 452, 453
337, 453, 454
338, 454, 455
339, 455, 456
340, 456, 457
341, 457, 458
342, 458, 459
343, 459, 460
344, 460, 461
345, 461,  24
346,  26, 462
347, 462, 463
348, 463, 464
349, 464, 465
350, 465, 466
351, 466, 467
352, 467, 468
353, 468, 469
354, 469, 470
355, 470, 471
356, 471, 472
357, 472, 473
358, 473, 474
359, 474, 475
360, 475, 476
361, 476,  25
362,  27, 477
363, 477, 478
364, 478, 479
365, 479, 480
366, 480, 481
367, 481, 482
368, 482, 483
369, 483,  26
370,  27, 484
371, 484, 485
372, 485, 486
373, 486, 487
374, 487, 488
375, 488, 489
376, 489, 490
377, 490, 491
378, 491, 492
379, 492,  28
380,  29, 493
381, 493, 494
382, 494, 495
383, 495, 496
384, 496, 497
385, 497, 498
386, 498, 499
387, 499, 500
388, 500, 501
389, 501, 502
390, 502, 503
391, 503, 504
392, 504,   5
393,  30, 505
394, 505, 506
395, 506, 507
396, 507, 508
397, 508, 509
398, 509, 510
399, 510, 511
400, 511, 512
401, 512, 513
402, 513, 514
403, 514, 515
404, 515, 516
405, 516, 517
406, 517, 518
407, 518, 519
408, 519, 520
409, 520, 521
410, 521, 522
411, 522, 523
412, 523,  29
413,  31, 524
414, 524, 525
415, 525, 526
416, 526, 527
417, 527, 528
418, 528, 529
419, 529, 530
420, 530, 531
421, 531, 532
422, 532, 533
423, 533, 534
424, 534, 535
425, 535,  30
426,  32, 536
427, 536, 537
428, 537, 538
429, 538, 539
430, 539, 540
431, 540, 541
432, 541,  31
433,  33, 542
434, 542, 543
435, 543, 544
436, 544, 545
437, 545, 546
438, 546, 547
439, 547, 548
440, 548, 549
441, 549, 550
442, 550,  32
443,   9, 551
444, 551, 552
445, 552, 553
446, 553, 554
447, 554, 555
448, 555, 556
449, 556, 557
450, 557, 558
451, 558, 559
452, 559,  34
453,  35, 560
454, 560, 561
455, 561, 562
456, 562, 563
457, 563, 564
458, 564, 565
459, 565,   9
460,  36, 566
461, 566, 567
462, 567, 568
463, 568, 569
464, 569, 570
465, 570, 571
466, 571, 572
467, 572, 573
468, 573, 574
469, 574, 575
470, 575, 576
471, 576, 577
472, 577,  35
473,  37, 578
474, 578, 579
475, 579, 580
476, 580, 581
477, 581, 582
478, 582, 583
479, 583, 584
480, 584, 585
481, 585, 586
482, 586, 587
483, 587, 588
484, 588, 589
485, 589, 590
486, 590, 591
487, 591, 592
488, 592, 593
489, 593, 594
490, 594, 595
491, 595, 596
492, 596,  36
493,  38, 597
494, 597, 598
495, 598, 599
496, 599, 600
497, 600, 601
498, 601, 602
499, 602, 603
500, 603, 604
501, 604, 605
502, 605, 606
503, 606, 607
504, 607, 608
505, 608,  37
506,  39, 609
507, 609, 610
508, 610, 611
509, 611, 612
510, 612, 613
511, 613, 614
512, 614,  38
513,  40, 615
514, 615, 616
515, 616, 617
516, 617, 618
517, 618, 619
518, 619, 620
519, 620, 621
520, 621, 622
521, 622, 623
522, 623,  39
523,  15, 624
524, 624, 625
525, 625, 626
526, 626, 627
527, 627, 628
528, 628, 629
529, 629, 630
530, 630, 631
531, 631, 632
532, 632,  41
533,  42, 633
534, 633, 634
535, 634, 635
536, 635, 636
537, 636, 637
538, 637, 638
539, 638,  15
540,  43, 639
541, 639, 640
542, 640, 641
543, 641, 642
544, 642, 643
545, 643, 644
546, 644, 645
547, 645, 646
548, 646, 647
549, 647, 648
550, 648, 649
551, 649, 650
552, 650,  42
553,  44, 651
554, 651, 652
555, 652, 653
556, 653, 654
557, 654, 655
558, 655, 656
559, 656, 657
560, 657, 658
561, 658, 659
562, 659, 660
563, 660, 661
564, 661, 662
565, 662, 663
566, 663, 664
567, 664, 665
568, 665, 666
569, 666, 667
570, 667, 668
571, 668, 669
572, 669,  43
573,  45, 670
574, 670, 671
575, 671, 672
576, 672, 673
577, 673, 674
578, 674, 675
579, 675, 676
580, 676, 677
581, 677, 678
582, 678, 679
583, 679, 680
584, 680, 681
585, 681,  44
586,  46, 682
587, 682, 683
588, 683, 684
589, 684, 685
590, 685, 686
591, 686, 687
592, 687,  45
593,  47, 688
594, 688, 689
595, 689, 690
596, 690, 691
597, 691, 692
598, 692, 693
599, 693, 694
600, 694, 695
601, 695, 696
602, 696,  46
603,  21, 697
604, 697, 698
605, 698, 699
606, 699, 700
607, 700, 701
608, 701, 702
609, 702, 703
610, 703, 704
611, 704, 705
612, 705,  48
613,  49, 706
614, 706, 707
615, 707, 708
616, 708, 709
617, 709, 710
618, 710, 711
619, 711,  21
620,  50, 712
621, 712, 713
622, 713, 714
623, 714, 715
624, 715, 716
625, 716, 717
626, 717, 718
627, 718, 719
628, 719, 720
629, 720, 721
630, 721, 722
631, 722, 723
632, 723,  49
633,  51, 724
634, 724, 725
635, 725, 726
636, 726, 727
637, 727, 728
638, 728, 729
639, 729, 730
640, 730, 731
641, 731, 732
642, 732, 733
643, 733, 734
644, 734, 735
645, 735, 736
646, 736, 737
647, 737, 738
648, 738, 739
649, 739, 740
650, 740, 741
651, 741, 742
652, 742,  50
653,  52, 743
654, 743, 744
655, 744, 745
656, 745, 746
657, 746, 747
658, 747, 748
659, 748, 749
660, 749, 750
661, 750, 751
662, 751, 752
663, 752, 753
664, 753, 754
665, 754,  51
666,  53, 755
667, 755, 756
668, 756, 757
669, 757, 758
670, 758, 759
671, 759, 760
672, 760,  52
673,  54, 761
674, 761, 762
675, 762, 763
676, 763, 764
677, 764, 765
678, 765, 766
679, 766, 767
680, 767, 768
681, 768, 769
682, 769,  53
683,  55, 770
684, 770, 771
685, 771, 772
686, 772, 773
687, 773, 774
688, 774, 775
689, 775,  27
690,  56, 776
691, 776, 777
692, 777, 778
693, 778, 779
694, 779, 780
695, 780, 781
696, 781, 782
697, 782, 783
698, 783, 784
699, 784, 785
700, 785, 786
701, 786, 787
702, 787,  55
703,  57, 788
704, 788, 789
705, 789, 790
706, 790, 791
707, 791, 792
708, 792, 793
709, 793, 794
710, 794, 795
711, 795, 796
712, 796, 797
713, 797, 798
714, 798, 799
715, 799, 800
716, 800, 801
717, 801, 802
718, 802, 803
719, 803, 804
720, 804, 805
721, 805, 806
722, 806,  56
723,  58, 807
724, 807, 808
725, 808, 809
726, 809, 810
727, 810, 811
728, 811, 812
729, 812, 813
730, 813, 814
731, 814, 815
732, 815, 816
733, 816, 817
734, 817, 818
735, 818,  57
736,  59, 819
737, 819, 820
738, 820, 821
739, 821, 822
740, 822, 823
741, 823, 824
742, 824,  58
743,  60, 825
744, 825, 826
745, 826, 827
746, 827, 828
747, 828, 829
748, 829, 830
749, 830, 831
750, 831, 832
751, 832, 833
752, 833,  59
753,  61, 834
754, 834, 835
755, 835, 836
756, 836, 837
757, 837, 838
758, 838, 839
759, 839, 840
760, 840, 841
761, 841, 842
762, 842, 843
763, 843, 844
764, 844, 845
765, 845, 846
766, 846, 847
767, 847, 848
768, 848, 849
769, 849, 850
770, 850, 851
771, 851, 852
772, 852, 853
773, 853, 854
774, 854, 855
775, 855, 856
776, 856, 857
777, 857, 858
778, 858, 859
779, 859, 860
780, 860, 861
781, 861, 862
782, 862, 863
783, 863, 864
784, 864, 865
785, 865,   5
786,  62, 866
787, 866, 867
788, 867, 868
789, 868, 869
790, 869, 870
791, 870, 871
792, 871, 872
793, 872,  61
794,  63, 873
795, 873, 874
796, 874, 875
797, 875, 876
798, 876, 877
799, 877, 878
800, 878, 879
801, 879,  29
802,  64, 880
803, 880, 881
804, 881, 882
805, 882, 883
806, 883, 884
807, 884, 885
808, 885, 886
809, 886, 887
810, 887, 888
811, 888, 889
812, 889, 890
813, 890, 891
814, 891, 892
815, 892, 893
816, 893, 894
817, 894,  63
818,  65, 895
819, 895, 896
820, 896, 897
821, 897, 898
822, 898, 899
823, 899, 900
824, 900, 901
825, 901, 902
826, 902, 903
827, 903, 904
828, 904, 905
829, 905, 906
830, 906, 907
831, 907, 908
832, 908, 909
833, 909,  64
834,  66, 910
835, 910, 911
836, 911, 912
837, 912, 913
838, 913, 914
839, 914, 915
840, 915, 916
841, 916, 917
842, 917, 918
843, 918, 919
844, 919, 920
845, 920, 921
846, 921, 922
847, 922, 923
848, 923, 924
849, 924,  65
850,  67, 925
851, 925, 926
852, 926, 927
853, 927, 928
854, 928, 929
855, 929, 930
856, 930, 931
857, 931, 932
858, 932, 933
859, 933, 934
860, 934, 935
861, 935, 936
862, 936, 937
863, 937, 938
864, 938, 939
865, 939,  66
866,  36, 940
867, 940, 941
868, 941, 942
869, 942, 943
870, 943, 944
871, 944, 945
872, 945, 946
873, 946, 947
874, 947, 948
875, 948, 949
876, 949, 950
877, 950, 951
878, 951, 952
879, 952, 953
880, 953, 954
881, 954,  67
882,  68, 955
883, 955, 956
884, 956, 957
885, 957, 958
886, 958, 959
887, 959, 960
888, 960, 961
889, 961, 962
890, 962, 963
891, 963, 964
892, 964, 965
893, 965, 966
894, 966, 967
895, 967, 968
896, 968, 969
897, 969,  36
898,  69, 970
899, 970, 971
900, 971, 972
901, 972, 973
902, 973, 974
903, 974, 975
904, 975, 976
905, 976, 977
906, 977, 978
907, 978, 979
908, 979, 980
909, 980, 981
910, 981, 982
911, 982, 983
912, 983, 984
913, 984,  68
914,  70, 985
915, 985, 986
916, 986, 987
917, 987, 988
918, 988, 989
919, 989, 990
920, 990, 991
921, 991, 992
922, 992, 993
923, 993, 994
924, 994, 995
925, 995, 996
926, 996, 997
927, 997, 998
928, 998, 999
929, 999,  69
930,   71, 1000
931, 1000, 1001
932, 1001, 1002
933, 1002, 1003
934, 1003, 1004
935, 1004, 1005
936, 1005, 1006
937, 1006, 1007
938, 1007, 1008
939, 1008, 1009
940, 1009, 1010
941, 1010, 1011
942, 1011, 1012
943, 1012, 1013
944, 1013, 1014
945, 1014,   70
946,   72, 1015
947, 1015, 1016
948, 1016, 1017
949, 1017, 1018
950, 1018, 1019
951, 1019, 1020
952, 1020, 1021
953, 1021, 1022
954, 1022, 1023
955, 1023, 1024
956, 1024, 1025
957, 1025, 1026
958, 1026, 1027
959, 1027, 1028
960, 1028, 1029
961, 1029,   71
962,   43, 1030
963, 1030, 1031
964, 1031, 1032
965, 1032, 1033
966, 1033, 1034
967, 1034, 1035
968, 1035, 1036
969, 1036,   72
970,   73, 1037
971, 1037, 1038
972, 1038, 1039
973, 1039, 1040
974, 1040, 1041
975, 1041, 1042
976, 1042, 1043
977, 1043,   43
978,   74, 1044
979, 1044, 1045
980, 1045, 1046
981, 1046, 1047
982, 1047, 1048
983, 1048, 1049
984, 1049, 1050
985, 1050, 1051
986, 1051, 1052
987, 1052, 1053
988, 1053, 1054
989, 1054, 1055
990, 1055, 1056
991, 1056, 1057
992, 1057, 1058
993, 1058,   73
 994,   75, 1059
 995, 1059, 1060
 996, 1060, 1061
 997, 1061, 1062
 998, 1062, 1063
 999, 1063, 1064
1000, 1064, 1065
1001, 1065, 1066
1002, 1066, 1067
1003, 1067, 1068
1004, 1068, 1069
1005, 1069, 1070
1006, 1070, 1071
1007, 1071, 1072
1008, 1072, 1073
1009, 1073,   74
1010,   76, 1074
1011, 1074, 1075
1012, 1075, 1076
1013, 1076, 1077
1014, 1077, 1078
1015, 1078, 1079
1016, 1079, 1080
1017, 1080, 1081
1018, 1081, 1082
1019, 1082, 1083
1020, 1083, 1084
1021, 1084, 1085
1022, 1085, 1086
1023, 1086, 1087
1024, 1087, 1088
1025, 1088,   75
1026,   77, 1089
1027, 1089, 1090
1028, 1090, 1091
1029, 1091, 1092
1030, 1092, 1093
1031, 1093, 1094
1032, 1094, 1095
1033, 1095, 1096
1034, 1096, 1097
1035, 1097, 1098
1036, 1098, 1099
1037, 1099, 1100
1038, 1100, 1101
1039, 1101, 1102
1040, 1102, 1103
1041, 1103,   76
1042,   50, 1104
1043, 1104, 1105
1044, 1105, 1106
1045, 1106, 1107
1046, 1107, 1108
1047, 1108, 1109
1048, 1109, 1110
1049, 1110, 1111
1050, 1111, 1112
1051, 1112, 1113
1052, 1113, 1114
1053, 1114, 1115
1054, 1115, 1116
1055, 1116, 1117
1056, 1117, 1118
1057, 1118,   77
1058,   78, 1119
1059, 1119, 1120
1060, 1120, 1121
1061, 1121, 1122
1062, 1122, 1123
1063, 1123, 1124
1064, 1124, 1125
1065, 1125, 1126
1066, 1126, 1127
1067, 1127, 1128
1068, 1128, 1129
1069, 1129, 1130
1070, 1130, 1131
1071, 1131, 1132
1072, 1132, 1133
1073, 1133,   50
1074,   79, 1134
1075, 1134, 1135
1076, 1135, 1136
1077, 1136, 1137
1078, 1137, 1138
1079, 1138, 1139
1080, 1139, 1140
1081, 1140, 1141
1082, 1141, 1142
1083, 1142, 1143
1084, 1143, 1144
1085, 1144, 1145
1086, 1145, 1146
1087, 1146, 1147
1088, 1147, 1148
1089, 1148,   78
1090,   80, 1149
1091, 1149, 1150
1092, 1150, 1151
1093, 1151, 1152
1094, 1152, 1153
1095, 1153, 1154
1096, 1154, 1155
1097, 1155, 1156
1098, 1156, 1157
1099, 1157, 1158
1100, 1158, 1159
1101, 1159, 1160
1102, 1160, 1161
1103, 1161, 1162
1104, 1162, 1163
1105, 1163,   79
1106,   81, 1164
1107, 1164, 1165
1108, 1165, 1166
1109, 1166, 1167
1110, 1167, 1168
1111, 1168, 1169
1112, 1169, 1170
1113, 1170, 1171
1114, 1171, 1172
1115, 1172, 1173
1116, 1173, 1174
1117, 1174, 1175
1118, 1175, 1176
1119, 1176, 1177
1120, 1177, 1178
1121, 1178,   80
1122,   82, 1179
1123, 1179, 1180
1124, 1180, 1181
1125, 1181, 1182
1126, 1182, 1183
1127, 1183, 1184
1128, 1184, 1185
1129, 1185, 1186
1130, 1186, 1187
1131, 1187, 1188
1132, 1188, 1189
1133, 1189, 1190
1134, 1190, 1191
1135, 1191, 1192
1136, 1192, 1193
1137, 1193,   81
1138,   56, 1194
1139, 1194, 1195
1140, 1195, 1196
1141, 1196, 1197
1142, 1197, 1198
1143, 1198, 1199
1144, 1199, 1200
1145, 1200,   82
1146,   83, 1201
1147, 1201, 1202
1148, 1202, 1203
1149, 1203, 1204
1150, 1204, 1205
1151, 1205, 1206
1152, 1206, 1207
1153, 1207,   30
1154,   84, 1208
1155, 1208, 1209
1156, 1209, 1210
1157, 1210, 1211
1158, 1211, 1212
1159, 1212, 1213
1160, 1213, 1214
1161, 1214, 1215
1162, 1215, 1216
1163, 1216, 1217
1164, 1217, 1218
1165, 1218, 1219
1166, 1219, 1220
1167, 1220, 1221
1168, 1221, 1222
1169, 1222,   83
1170,   85, 1223
1171, 1223, 1224
1172, 1224, 1225
1173, 1225, 1226
1174, 1226, 1227
1175, 1227, 1228
1176, 1228, 1229
1177, 1229, 1230
1178, 1230, 1231
1179, 1231, 1232
1180, 1232, 1233
1181, 1233, 1234
1182, 1234, 1235
1183, 1235, 1236
1184, 1236, 1237
1185, 1237,   84
1186,   86, 1238
1187, 1238, 1239
1188, 1239, 1240
1189, 1240, 1241
1190, 1241, 1242
1191, 1242, 1243
1192, 1243, 1244
1193, 1244, 1245
1194, 1245, 1246
1195, 1246, 1247
1196, 1247, 1248
1197, 1248, 1249
1198, 1249, 1250
1199, 1250, 1251
1200, 1251, 1252
1201, 1252,   85
1202,   87, 1253
1203, 1253, 1254
1204, 1254, 1255
1205, 1255, 1256
1206, 1256, 1257
1207, 1257, 1258
1208, 1258, 1259
1209, 1259, 1260
1210, 1260, 1261
1211, 1261, 1262
1212, 1262, 1263
1213, 1263, 1264
1214, 1264, 1265
1215, 1265, 1266
1216, 1266, 1267
1217, 1267,   86
1218,   37, 1268
1219, 1268, 1269
1220, 1269, 1270
1221, 1270, 1271
1222, 1271, 1272
1223, 1272, 1273
1224, 1273, 1274
1225, 1274, 1275
1226, 1275, 1276
1227, 1276, 1277
1228, 1277, 1278
1229, 1278, 1279
1230, 1279, 1280
1231, 1280, 1281
1232, 1281, 1282
1233, 1282,   87
1234,   88, 1283
1235, 1283, 1284
1236, 1284, 1285
1237, 1285, 1286
1238, 1286, 1287
1239, 1287, 1288
1240, 1288, 1289
1241, 1289, 1290
1242, 1290, 1291
1243, 1291, 1292
1244, 1292, 1293
1245, 1293, 1294
1246, 1294, 1295
1247, 1295, 1296
1248, 1296, 1297
1249, 1297,   37
1250,   89, 1298
1251, 1298, 1299
1252, 1299, 1300
1253, 1300, 1301
1254, 1301, 1302
1255, 1302, 1303
1256, 1303, 1304
1257, 1304, 1305
1258, 1305, 1306
1259, 1306, 1307
1260, 1307, 1308
1261, 1308, 1309
1262, 1309, 1310
1263, 1310, 1311
1264, 1311, 1312
1265, 1312,   88
1266,   90, 1313
1267, 1313, 1314
1268, 1314, 1315
1269, 1315, 1316
1270, 1316, 1317
1271, 1317, 1318
1272, 1318, 1319
1273, 1319, 1320
1274, 1320, 1321
1275, 1321, 1322
1276, 1322, 1323
1277, 1323, 1324
1278, 1324, 1325
1279, 1325, 1326
1280, 1326, 1327
1281, 1327,   89
1282,   91, 1328
1283, 1328, 1329
1284, 1329, 1330
1285, 1330, 1331
1286, 1331, 1332
1287, 1332, 1333
1288, 1333, 1334
1289, 1334, 1335
1290, 1335, 1336
1291, 1336, 1337
1292, 1337, 1338
1293, 1338, 1339
1294, 1339, 1340
1295, 1340, 1341
1296, 1341, 1342
1297, 1342,   90
1298,   92, 1343
1299, 1343, 1344
1300, 1344, 1345
1301, 1345, 1346
1302, 1346, 1347
1303, 1347, 1348
1304, 1348, 1349
1305, 1349, 1350
1306, 1350, 1351
1307, 1351, 1352
1308, 1352, 1353
1309, 1353, 1354
1310, 1354, 1355
1311, 1355, 1356
1312, 1356, 1357
1313, 1357,   91
1314,   44, 1358
1315, 1358, 1359
1316, 1359, 1360
1317, 1360, 1361
1318, 1361, 1362
1319, 1362, 1363
1320, 1363, 1364
1321, 1364,   92
1322,   93, 1365
1323, 1365, 1366
1324, 1366, 1367
1325, 1367, 1368
1326, 1368, 1369
1327, 1369, 1370
1328, 1370, 1371
1329, 1371,   44
1330,   94, 1372
1331, 1372, 1373
1332, 1373, 1374
1333, 1374, 1375
1334, 1375, 1376
1335, 1376, 1377
1336, 1377, 1378
1337, 1378, 1379
1338, 1379, 1380
1339, 1380, 1381
1340, 1381, 1382
1341, 1382, 1383
1342, 1383, 1384
1343, 1384, 1385
1344, 1385, 1386
1345, 1386,   93
1346,   95, 1387
1347, 1387, 1388
1348, 1388, 1389
1349, 1389, 1390
1350, 1390, 1391
1351, 1391, 1392
1352, 1392, 1393
1353, 1393, 1394
1354, 1394, 1395
1355, 1395, 1396
1356, 1396, 1397
1357, 1397, 1398
1358, 1398, 1399
1359, 1399, 1400
1360, 1400, 1401
1361, 1401,   94
1362,   96, 1402
1363, 1402, 1403
1364, 1403, 1404
1365, 1404, 1405
1366, 1405, 1406
1367, 1406, 1407
1368, 1407, 1408
1369, 1408, 1409
1370, 1409, 1410
1371, 1410, 1411
1372, 1411, 1412
1373, 1412, 1413
1374, 1413, 1414
1375, 1414, 1415
1376, 1415, 1416
1377, 1416,   95
1378,   97, 1417
1379, 1417, 1418
1380, 1418, 1419
1381, 1419, 1420
1382, 1420, 1421
1383, 1421, 1422
1384, 1422, 1423
1385, 1423, 1424
1386, 1424, 1425
1387, 1425, 1426
1388, 1426, 1427
1389, 1427, 1428
1390, 1428, 1429
1391, 1429, 1430
1392, 1430, 1431
1393, 1431,   96
1394,   51, 1432
1395, 1432, 1433
1396, 1433, 1434
1397, 1434, 1435
1398, 1435, 1436
1399, 1436, 1437
1400, 1437, 1438
1401, 1438, 1439
1402, 1439, 1440
1403, 1440, 1441
1404, 1441, 1442
1405, 1442, 1443
1406, 1443, 1444
1407, 1444, 1445
1408, 1445, 1446
1409, 1446,   97
1410,   98, 1447
1411, 1447, 1448
1412, 1448, 1449
1413, 1449, 1450
1414, 1450, 1451
1415, 1451, 1452
1416, 1452, 1453
1417, 1453, 1454
1418, 1454, 1455
1419, 1455, 1456
1420, 1456, 1457
1421, 1457, 1458
1422, 1458, 1459
1423, 1459, 1460
1424, 1460, 1461
1425, 1461,   51
1426,   99, 1462
1427, 1462, 1463
1428, 1463, 1464
1429, 1464, 1465
1430, 1465, 1466
1431, 1466, 1467
1432, 1467, 1468
1433, 1468, 1469
1434, 1469, 1470
1435, 1470, 1471
1436, 1471, 1472
1437, 1472, 1473
1438, 1473, 1474
1439, 1474, 1475
1440, 1475, 1476
1441, 1476,   98
1442,  100, 1477
1443, 1477, 1478
1444, 1478, 1479
1445, 1479, 1480
1446, 1480, 1481
1447, 1481, 1482
1448, 1482, 1483
1449, 1483, 1484
1450, 1484, 1485
1451, 1485, 1486
1452, 1486, 1487
1453, 1487, 1488
1454, 1488, 1489
1455, 1489, 1490
1456, 1490, 1491
1457, 1491,   99
1458,  101, 1492
1459, 1492, 1493
1460, 1493, 1494
1461, 1494, 1495
1462, 1495, 1496
1463, 1496, 1497
1464, 1497, 1498
1465, 1498, 1499
1466, 1499, 1500
1467, 1500, 1501
1468, 1501, 1502
1469, 1502, 1503
1470, 1503, 1504
1471, 1504, 1505
1472, 1505, 1506
1473, 1506,  100
1474,  102, 1507
1475, 1507, 1508
1476, 1508, 1509
1477, 1509, 1510
1478, 1510, 1511
1479, 1511, 1512
1480, 1512, 1513
1481, 1513, 1514
1482, 1514, 1515
1483, 1515, 1516
1484, 1516, 1517
1485, 1517, 1518
1486, 1518, 1519
1487, 1519, 1520
1488, 1520, 1521
1489, 1521,  101
1490,   57, 1522
1491, 1522, 1523
1492, 1523, 1524
1493, 1524, 1525
1494, 1525, 1526
1495, 1526, 1527
1496, 1527, 1528
1497, 1528,  102
1498,  103, 1529
1499, 1529, 1530
1500, 1530,   31
1501,  104, 1531
1502, 1531, 1532
1503, 1532, 1533
1504, 1533, 1534
1505, 1534, 1535
1506, 1535, 1536
1507, 1536, 1537
1508, 1537, 1538
1509, 1538, 1539
1510, 1539, 1540
1511, 1540, 1541
1512, 1541, 1542
1513, 1542, 1543
1514, 1543, 1544
1515, 1544, 1545
1516, 1545, 1546
1517, 1546, 1547
1518, 1547, 1548
1519, 1548,  103
1520,  105, 1549
1521, 1549, 1550
1522, 1550, 1551
1523, 1551, 1552
1524, 1552, 1553
1525, 1553, 1554
1526, 1554, 1555
1527, 1555,   32
1528,  106, 1556
1529, 1556, 1557
1530, 1557, 1558
1531, 1558, 1559
1532, 1559, 1560
1533, 1560, 1561
1534, 1561, 1562
1535, 1562, 1563
1536, 1563, 1564
1537, 1564, 1565
1538, 1565, 1566
1539, 1566, 1567
1540, 1567, 1568
1541, 1568, 1569
1542, 1569, 1570
1543, 1570,  105
1544,  107, 1571
1545, 1571, 1572
1546, 1572, 1573
1547, 1573, 1574
1548, 1574, 1575
1549, 1575, 1576
1550, 1576, 1577
1551, 1577, 1578
1552, 1578, 1579
1553, 1579, 1580
1554, 1580, 1581
1555, 1581, 1582
1556, 1582, 1583
1557, 1583, 1584
1558, 1584, 1585
1559, 1585,  106
1560,  108, 1586
1561, 1586, 1587
1562, 1587, 1588
1563, 1588, 1589
1564, 1589, 1590
1565, 1590, 1591
1566, 1591, 1592
1567, 1592, 1593
1568, 1593, 1594
1569, 1594, 1595
1570, 1595, 1596
1571, 1596, 1597
1572, 1597, 1598
1573, 1598, 1599
1574, 1599, 1600
1575, 1600,  107
1576,  109, 1601
1577, 1601, 1602
1578, 1602, 1603
1579, 1603, 1604
1580, 1604, 1605
1581, 1605, 1606
1582, 1606, 1607
1583, 1607, 1608
1584, 1608, 1609
1585, 1609, 1610
1586, 1610, 1611
1587, 1611, 1612
1588, 1612, 1613
1589, 1613, 1614
1590, 1614, 1615
1591, 1615,  108
1592,   39, 1616
1593, 1616, 1617
1594, 1617, 1618
1595, 1618, 1619
1596, 1619, 1620
1597, 1620, 1621
1598, 1621, 1622
1599, 1622, 1623
1600, 1623, 1624
1601, 1624, 1625
1602, 1625, 1626
1603, 1626, 1627
1604, 1627, 1628
1605, 1628, 1629
1606, 1629, 1630
1607, 1630,  109
1608,  110, 1631
1609, 1631, 1632
1610, 1632, 1633
1611, 1633, 1634
1612, 1634, 1635
1613, 1635, 1636
1614, 1636, 1637
1615, 1637, 1638
1616, 1638, 1639
1617, 1639, 1640
1618, 1640, 1641
1619, 1641, 1642
1620, 1642, 1643
1621, 1643, 1644
1622, 1644, 1645
1623, 1645,   39
1624,  111, 1646
1625, 1646, 1647
1626, 1647, 1648
1627, 1648, 1649
1628, 1649, 1650
1629, 1650, 1651
1630, 1651, 1652
1631, 1652, 1653
1632, 1653, 1654
1633, 1654, 1655
1634, 1655, 1656
1635, 1656, 1657
1636, 1657, 1658
1637, 1658, 1659
1638, 1659, 1660
1639, 1660,  110
1640,  112, 1661
1641, 1661, 1662
1642, 1662, 1663
1643, 1663, 1664
1644, 1664, 1665
1645, 1665, 1666
1646, 1666, 1667
1647, 1667, 1668
1648, 1668, 1669
1649, 1669, 1670
1650, 1670, 1671
1651, 1671, 1672
1652, 1672, 1673
1653, 1673, 1674
1654, 1674, 1675
1655, 1675,  111
1656,  113, 1676
1657, 1676, 1677
1658, 1677, 1678
1659, 1678, 1679
1660, 1679, 1680
1661, 1680, 1681
1662, 1681, 1682
1663, 1682, 1683
1664, 1683, 1684
1665, 1684, 1685
1666, 1685, 1686
1667, 1686, 1687
1668, 1687, 1688
1669, 1688, 1689
1670, 1689, 1690
1671, 1690,  112
1672,  114, 1691
1673, 1691, 1692
1674, 1692, 1693
1675, 1693, 1694
1676, 1694, 1695
1677, 1695, 1696
1678, 1696, 1697
1679, 1697, 1698
1680, 1698, 1699
1681, 1699, 1700
1682, 1700, 1701
1683, 1701, 1702
1684, 1702, 1703
1685, 1703, 1704
1686, 1704, 1705
1687, 1705,  113
1688,   46, 1706
1689, 1706, 1707
1690, 1707, 1708
1691, 1708, 1709
1692, 1709, 1710
1693, 1710, 1711
1694, 1711, 1712
1695, 1712,  114
1696,  115, 1713
1697, 1713, 1714
1698, 1714, 1715
1699, 1715, 1716
1700, 1716, 1717
1701, 1717, 1718
1702, 1718, 1719
1703, 1719,   46
1704,  116, 1720
1705, 1720, 1721
1706, 1721, 1722
1707, 1722, 1723
1708, 1723, 1724
1709, 1724, 1725
1710, 1725, 1726
1711, 1726, 1727
1712, 1727, 1728
1713, 1728, 1729
1714, 1729, 1730
1715, 1730, 1731
1716, 1731, 1732
1717, 1732, 1733
1718, 1733, 1734
1719, 1734,  115
1720,  117, 1735
1721, 1735, 1736
1722, 1736, 1737
1723, 1737, 1738
1724, 1738, 1739
1725, 1739, 1740
1726, 1740, 1741
1727, 1741, 1742
1728, 1742, 1743
1729, 1743, 1744
1730, 1744, 1745
1731, 1745, 1746
1732, 1746, 1747
1733, 1747, 1748
1734, 1748, 1749
1735, 1749,  116
1736,  118, 1750
1737, 1750, 1751
1738, 1751, 1752
1739, 1752, 1753
1740, 1753, 1754
1741, 1754, 1755
1742, 1755, 1756
1743, 1756, 1757
1744, 1757, 1758
1745, 1758, 1759
1746, 1759, 1760
1747, 1760, 1761
1748, 1761, 1762
1749, 1762, 1763
1750, 1763, 1764
1751, 1764,  117
1752,  119, 1765
1753, 1765, 1766
1754, 1766, 1767
1755, 1767, 1768
1756, 1768, 1769
1757, 1769, 1770
1758, 1770, 1771
1759, 1771, 1772
1760, 1772, 1773
1761, 1773, 1774
1762, 1774, 1775
1763, 1775, 1776
1764, 1776, 1777
1765, 1777, 1778
1766, 1778, 1779
1767, 1779,  118
1768,   53, 1780
1769, 1780, 1781
1770, 1781, 1782
1771, 1782, 1783
1772, 1783, 1784
1773, 1784, 1785
1774, 1785, 1786
1775, 1786, 1787
1776, 1787, 1788
1777, 1788, 1789
1778, 1789, 1790
1779, 1790, 1791
1780, 1791, 1792
1781, 1792, 1793
1782, 1793, 1794
1783, 1794,  119
1784,  120, 1795
1785, 1795, 1796
1786, 1796, 1797
1787, 1797, 1798
1788, 1798, 1799
1789, 1799, 1800
1790, 1800, 1801
1791, 1801, 1802
1792, 1802, 1803
1793, 1803, 1804
1794, 1804, 1805
1795, 1805, 1806
1796, 1806, 1807
1797, 1807, 1808
1798, 1808, 1809
1799, 1809,   53
1800,  121, 1810
1801, 1810, 1811
1802, 1811, 1812
1803, 1812, 1813
1804, 1813, 1814
1805, 1814, 1815
1806, 1815, 1816
1807, 1816, 1817
1808, 1817, 1818
1809, 1818, 1819
1810, 1819, 1820
1811, 1820, 1821
1812, 1821, 1822
1813, 1822, 1823
1814, 1823, 1824
1815, 1824,  120
1816,  122, 1825
1817, 1825, 1826
1818, 1826, 1827
1819, 1827, 1828
1820, 1828, 1829
1821, 1829, 1830
1822, 1830, 1831
1823, 1831, 1832
1824, 1832, 1833
1825, 1833, 1834
1826, 1834, 1835
1827, 1835, 1836
1828, 1836, 1837
1829, 1837, 1838
1830, 1838, 1839
1831, 1839,  121
1832,  123, 1840
1833, 1840, 1841
1834, 1841, 1842
1835, 1842, 1843
1836, 1843, 1844
1837, 1844, 1845
1838, 1845, 1846
1839, 1846, 1847
1840, 1847, 1848
1841, 1848, 1849
1842, 1849, 1850
1843, 1850, 1851
1844, 1851, 1852
1845, 1852, 1853
1846, 1853, 1854
1847, 1854,  122
1848,  124, 1855
1849, 1855, 1856
1850, 1856, 1857
1851, 1857, 1858
1852, 1858, 1859
1853, 1859, 1860
1854, 1860, 1861
1855, 1861, 1862
1856, 1862, 1863
1857, 1863, 1864
1858, 1864, 1865
1859, 1865, 1866
1860, 1866, 1867
1861, 1867, 1868
1862, 1868, 1869
1863, 1869,  123
1864,   59, 1870
1865, 1870, 1871
1866, 1871, 1872
1867, 1872, 1873
1868, 1873, 1874
1869, 1874, 1875
1870, 1875, 1876
1871, 1876,  124
1872,  125, 1877
1873, 1877, 1878
1874, 1878, 1879
1875, 1879, 1880
1876, 1880, 1881
1877, 1881, 1882
1878, 1882, 1883
1879, 1883, 1884
1880, 1884, 1885
1881, 1885, 1886
1882, 1886, 1887
1883, 1887, 1888
1884, 1888, 1889
1885, 1889, 1890
1886, 1890, 1891
1887, 1891, 1892
1888, 1892, 1893
1889, 1893, 1894
1890, 1894, 1895
1891, 1895, 1896
1892, 1896, 1897
1893, 1897, 1898
1894, 1898, 1899
1895, 1899, 1900
1896, 1900, 1901
1897, 1901, 1902
1898, 1902, 1903
1899, 1903, 1904
1900, 1904, 1905
1901, 1905, 1906
1902, 1906, 1907
1903, 1907, 1908
1904, 1908,   35
1905,  126, 1909
1906, 1909, 1910
1907, 1910, 1911
1908, 1911, 1912
1909, 1912, 1913
1910, 1913, 1914
1911, 1914, 1915
1912, 1915,  125
1913,  127, 1916
1914, 1916, 1917
1915, 1917,   38
1916,  128, 1918
1917, 1918, 1919
1918, 1919, 1920
1919, 1920, 1921
1920, 1921, 1922
1921, 1922, 1923
1922, 1923, 1924
1923, 1924, 1925
1924, 1925, 1926
1925, 1926, 1927
1926, 1927, 1928
1927, 1928, 1929
1928, 1929, 1930
1929, 1930, 1931
1930, 1931, 1932
1931, 1932, 1933
1932, 1933, 1934
1933, 1934, 1935
1934, 1935,  127
1935,  129, 1936
1936, 1936, 1937
1937, 1937, 1938
1938, 1938, 1939
1939, 1939, 1940
1940, 1940, 1941
1941, 1941, 1942
1942, 1942, 1943
1943, 1943, 1944
1944, 1944, 1945
1945, 1945, 1946
1946, 1946, 1947
1947, 1947, 1948
1948, 1948, 1949
1949, 1949, 1950
1950, 1950, 1951
1951, 1951, 1952
1952, 1952, 1953
1953, 1953, 1954
1954, 1954, 1955
1955, 1955, 1956
1956, 1956, 1957
1957, 1957, 1958
1958, 1958, 1959
1959, 1959, 1960
1960, 1960, 1961
1961, 1961, 1962
1962, 1962, 1963
1963, 1963, 1964
1964, 1964, 1965
1965, 1965, 1966
1966, 1966, 1967
1967, 1967,   42
1968,  130, 1968
1969, 1968, 1969
1970, 1969, 1970
1971, 1970, 1971
1972, 1971, 1972
1973, 1972, 1973
1974, 1973, 1974
1975, 1974,  129
1976,  131, 1975
1977, 1975, 1976
1978, 1976,   45
1979,  132, 1977
1980, 1977, 1978
1981, 1978, 1979
1982, 1979, 1980
1983, 1980, 1981
1984, 1981, 1982
1985, 1982, 1983
1986, 1983, 1984
1987, 1984, 1985
1988, 1985, 1986
1989, 1986, 1987
1990, 1987, 1988
1991, 1988, 1989
1992, 1989, 1990
1993, 1990, 1991
1994, 1991, 1992
1995, 1992, 1993
1996, 1993, 1994
1997, 1994,  131
1998,  133, 1995
1999, 1995, 1996
2000, 1996, 1997
2001, 1997, 1998
2002, 1998, 1999
2003, 1999, 2000
2004, 2000, 2001
2005, 2001, 2002
2006, 2002, 2003
2007, 2003, 2004
2008, 2004, 2005
2009, 2005, 2006
2010, 2006, 2007
2011, 2007, 2008
2012, 2008, 2009
2013, 2009, 2010
2014, 2010, 2011
2015, 2011, 2012
2016, 2012, 2013
2017, 2013, 2014
2018, 2014, 2015
2019, 2015, 2016
2020, 2016, 2017
2021, 2017, 2018
2022, 2018, 2019
2023, 2019, 2020
2024, 2020, 2021
2025, 2021, 2022
2026, 2022, 2023
2027, 2023, 2024
2028, 2024, 2025
2029, 2025, 2026
2030, 2026,   49
2031,  134, 2027
2032, 2027, 2028
2033, 2028, 2029
2034, 2029, 2030
2035, 2030, 2031
2036, 2031, 2032
2037, 2032, 2033
2038, 2033,  133
2039,  135, 2034
2040, 2034, 2035
2041, 2035,   52
2042,  136, 2036
2043, 2036, 2037
2044, 2037, 2038
2045, 2038, 2039
2046, 2039, 2040
2047, 2040, 2041
2048, 2041, 2042
2049, 2042, 2043
2050, 2043, 2044
2051, 2044, 2045
2052, 2045, 2046
2053, 2046, 2047
2054, 2047, 2048
2055, 2048, 2049
2056, 2049, 2050
2057, 2050, 2051
2058, 2051, 2052
2059, 2052, 2053
2060, 2053,  135
2061,  137, 2054
2062, 2054, 2055
2063, 2055, 2056
2064, 2056, 2057
2065, 2057, 2058
2066, 2058, 2059
2067, 2059, 2060
2068, 2060, 2061
2069, 2061, 2062
2070, 2062, 2063
2071, 2063, 2064
2072, 2064, 2065
2073, 2065, 2066
2074, 2066, 2067
2075, 2067, 2068
2076, 2068, 2069
2077, 2069, 2070
2078, 2070, 2071
2079, 2071, 2072
2080, 2072, 2073
2081, 2073, 2074
2082, 2074, 2075
2083, 2075, 2076
2084, 2076, 2077
2085, 2077, 2078
2086, 2078, 2079
2087, 2079, 2080
2088, 2080, 2081
2089, 2081, 2082
2090, 2082, 2083
2091, 2083, 2084
2092, 2084, 2085
2093, 2085,   55
2094,  138, 2086
2095, 2086, 2087
2096, 2087, 2088
2097, 2088, 2089
2098, 2089, 2090
2099, 2090, 2091
2100, 2091, 2092
2101, 2092,  137
2102,  139, 2093
2103, 2093, 2094
2104, 2094,   58
2105,  140, 2095
2106, 2095, 2096
2107, 2096, 2097
2108, 2097, 2098
2109, 2098, 2099
2110, 2099, 2100
2111, 2100, 2101
2112, 2101, 2102
2113, 2102, 2103
2114, 2103, 2104
2115, 2104, 2105
2116, 2105, 2106
2117, 2106, 2107
2118, 2107, 2108
2119, 2108, 2109
2120, 2109, 2110
2121, 2110, 2111
2122, 2111, 2112
2123, 2112,  139
2124,  103, 2113
2125, 2113, 2114
2126, 2114, 2115
2127, 2115, 2116
2128, 2116, 2117
2129, 2117, 2118
2130, 2118, 2119
2131, 2119, 2120
2132, 2120, 2121
2133, 2121, 2122
2134, 2122, 2123
2135, 2123, 2124
2136, 2124, 2125
2137, 2125, 2126
2138, 2126, 2127
2139, 2127, 2128
2140, 2128, 2129
2141, 2129, 2130
2142, 2130, 2131
2143, 2131, 2132
2144, 2132, 2133
2145, 2133, 2134
2146, 2134, 2135
2147, 2135, 2136
2148, 2136, 2137
2149, 2137, 2138
2150, 2138, 2139
2151, 2139, 2140
2152, 2140, 2141
2153, 2141, 2142
2154, 2142, 2143
2155, 2143, 2144
2156, 2144, 2145
2157, 2145, 2146
2158, 2146, 2147
2159, 2147, 2148
2160, 2148, 2149
2161, 2149, 2150
2162, 2150, 2151
2163, 2151, 2152
2164, 2152, 2153
2165, 2153, 2154
2166, 2154, 2155
2167, 2155,   61
2168,  127, 2156
2169, 2156, 2157
2170, 2157, 2158
2171, 2158, 2159
2172, 2159, 2160
2173, 2160, 2161
2174, 2161, 2162
2175, 2162, 2163
2176, 2163, 2164
2177, 2164, 2165
2178, 2165, 2166
2179, 2166, 2167
2180, 2167, 2168
2181, 2168, 2169
2182, 2169, 2170
2183, 2170, 2171
2184, 2171, 2172
2185, 2172, 2173
2186, 2173, 2174
2187, 2174, 2175
2188, 2175, 2176
2189, 2176, 2177
2190, 2177, 2178
2191, 2178, 2179
2192, 2179, 2180
2193, 2180, 2181
2194, 2181, 2182
2195, 2182, 2183
2196, 2183, 2184
2197, 2184, 2185
2198, 2185, 2186
2199, 2186, 2187
2200, 2187, 2188
2201, 2188, 2189
2202, 2189, 2190
2203, 2190, 2191
2204, 2191, 2192
2205, 2192, 2193
2206, 2193, 2194
2207, 2194, 2195
2208, 2195, 2196
2209, 2196, 2197
2210, 2197, 2198
2211, 2198,  125
2212,  131, 2199
2213, 2199, 2200
2214, 2200, 2201
2215, 2201, 2202
2216, 2202, 2203
2217, 2203, 2204
2218, 2204, 2205
2219, 2205, 2206
2220, 2206, 2207
2221, 2207, 2208
2222, 2208, 2209
2223, 2209, 2210
2224, 2210, 2211
2225, 2211, 2212
2226, 2212, 2213
2227, 2213, 2214
2228, 2214, 2215
2229, 2215, 2216
2230, 2216, 2217
2231, 2217, 2218
2232, 2218, 2219
2233, 2219, 2220
2234, 2220, 2221
2235, 2221, 2222
2236, 2222, 2223
2237, 2223, 2224
2238, 2224, 2225
2239, 2225, 2226
2240, 2226, 2227
2241, 2227, 2228
2242, 2228, 2229
2243, 2229, 2230
2244, 2230, 2231
2245, 2231, 2232
2246, 2232, 2233
2247, 2233, 2234
2248, 2234, 2235
2249, 2235, 2236
2250, 2236, 2237
2251, 2237, 2238
2252, 2238, 2239
2253, 2239, 2240
2254, 2240, 2241
2255, 2241,  129
2256,  135, 2242
2257, 2242, 2243
2258, 2243, 2244
2259, 2244, 2245
2260, 2245, 2246
2261, 2246, 2247
2262, 2247, 2248
2263, 2248, 2249
2264, 2249, 2250
2265, 2250, 2251
2266, 2251, 2252
2267, 2252, 2253
2268, 2253, 2254
2269, 2254, 2255
2270, 2255, 2256
2271, 2256, 2257
2272, 2257, 2258
2273, 2258, 2259
2274, 2259, 2260
2275, 2260, 2261
2276, 2261, 2262
2277, 2262, 2263
2278, 2263, 2264
2279, 2264, 2265
2280, 2265, 2266
2281, 2266, 2267
2282, 2267, 2268
2283, 2268, 2269
2284, 2269, 2270
2285, 2270, 2271
2286, 2271, 2272
2287, 2272, 2273
2288, 2273, 2274
2289, 2274, 2275
2290, 2275, 2276
2291, 2276, 2277
2292, 2277, 2278
2293, 2278, 2279
2294, 2279, 2280
2295, 2280, 2281
2296, 2281, 2282
2297, 2282, 2283
2298, 2283, 2284
2299, 2284,  133
2300,  139, 2285
2301, 2285, 2286
2302, 2286, 2287
2303, 2287, 2288
2304, 2288, 2289
2305, 2289, 2290
2306, 2290, 2291
2307, 2291, 2292
2308, 2292, 2293
2309, 2293, 2294
2310, 2294, 2295
2311, 2295, 2296
2312, 2296, 2297
2313, 2297, 2298
2314, 2298, 2299
2315, 2299, 2300
2316, 2300, 2301
2317, 2301, 2302
2318, 2302, 2303
2319, 2303, 2304
2320, 2304, 2305
2321, 2305, 2306
2322, 2306, 2307
2323, 2307, 2308
2324, 2308, 2309
2325, 2309, 2310
2326, 2310, 2311
2327, 2311, 2312
2328, 2312, 2313
2329, 2313, 2314
2330, 2314, 2315
2331, 2315, 2316
2332, 2316, 2317
2333, 2317, 2318
2334, 2318, 2319
2335, 2319, 2320
2336, 2320, 2321
2337, 2321, 2322
2338, 2322, 2323
2339, 2323, 2324
2340, 2324, 2325
2341, 2325, 2326
2342, 2326, 2327
2343, 2327,  137
*Nset, nset=P2
   2,   3,   5,   9,  15,  21,  27,  28,  29,  30,  31,  32,  33,  34,  35,  36
  37,  38,  39,  40,  41,  42,  43,  44,  45,  46,  47,  48,  49,  50,  51,  52
  53,  54,  55,  56,  57,  58,  59,  60, 148, 149, 150, 151, 152, 153, 154, 155
 156, 172, 173, 174, 175, 176, 177, 484, 485, 486, 487, 488, 489, 490, 491, 492
 493, 494, 495, 496, 497, 498, 499, 500, 501, 502, 503, 504, 505, 506, 507, 508
 509, 510, 511, 512, 513, 514, 515, 516, 517, 518, 519, 520, 521, 522, 523, 524
 525, 526, 527, 528, 529, 530, 531, 532, 533, 534, 535, 536, 537, 538, 539, 540
 541, 542, 543, 544, 545, 546, 547, 548, 549, 550, 551, 552, 553, 554, 555, 556
 557, 558, 559, 560, 561, 562, 563, 564, 565, 566, 567, 568, 569, 570, 571, 572
 573, 574, 575, 576, 577, 578, 579, 580, 581, 582, 583, 584, 585, 586, 587, 588
 589, 590, 591, 592, 593, 594, 595, 596, 597, 598, 599, 600, 601, 602, 603, 604
 605, 606, 607, 608, 609, 610, 611, 612, 613, 614, 615, 616, 617, 618, 619, 620
 621, 622, 623, 624, 625, 626, 627, 628, 629, 630, 631, 632, 633, 634, 635, 636
 637, 638, 639, 640, 641, 642, 643, 644, 645, 646, 647, 648, 649, 650, 651, 652
 653, 654, 655, 656, 657, 658, 659, 660, 661, 662, 663, 664, 665, 666, 667, 668
 669, 670, 671, 672, 673, 674, 675, 676, 677, 678, 679, 680, 681, 682, 683, 684
 685, 686, 687, 688, 689, 690, 691, 692, 693, 694, 695, 696, 697, 698, 699, 700
 701, 702, 703, 704, 705, 706, 707, 708, 709, 710, 711, 712, 713, 714, 715, 716
 717, 718, 719, 720, 721, 722, 723, 724, 725, 726, 727, 728, 729, 730, 731, 732
 733, 734, 735, 736, 737, 738, 739, 740, 741, 742, 743, 744, 745, 746, 747, 748
 749, 750, 751, 752, 753, 754, 755, 756, 757, 758, 759, 760, 761, 762, 763, 764
 765, 766, 767, 768, 769, 770, 771, 772, 773, 774, 775, 776, 777, 778, 779, 780
 781, 782, 783, 784, 785, 786, 787, 788, 789, 790, 791, 792, 793, 794, 795, 796
 797, 798, 799, 800, 801, 802, 803, 804, 805, 806, 807, 808, 809, 810, 811, 812
 813, 814, 815, 816, 817, 818, 819, 820, 821, 822, 823, 824, 825, 826, 827, 828
 829, 830, 831, 832, 833
*Elset, elset=P2
   9,  10,  11,  12,  13,  14,  15,  16,  17,  18,  35,  36,  37,  38,  39,  40
  41, 370, 371, 372, 373, 374, 375, 376, 377, 378, 379, 380, 381, 382, 383, 384
 385, 386, 387, 388, 389, 390, 391, 392, 393, 394, 395, 396, 397, 398, 399, 400
 401, 402, 403, 404, 405, 406, 407, 408, 409, 410, 411, 412, 413, 414, 415, 416
 417, 418, 419, 420, 421, 422, 423, 424, 425, 426, 427, 428, 429, 430, 431, 432
 433, 434, 435, 436, 437, 438, 439, 440, 441, 442, 443, 444, 445, 446, 447, 448
 449, 450, 451, 452, 453, 454, 455, 456, 457, 458, 459, 460, 461, 462, 463, 464
 465, 466, 467, 468, 469, 470, 471, 472, 473, 474, 475, 476, 477, 478, 479, 480
 481, 482, 483, 484, 485, 486, 487, 488, 489, 490, 491, 492, 493, 494, 495, 496
 497, 498, 499, 500, 501, 502, 503, 504, 505, 506, 507, 508, 509, 510, 511, 512
 513, 514, 515, 516, 517, 518, 519, 520, 521, 522, 523, 524, 525, 526, 527, 528
 529, 530, 531, 532, 533, 534, 535, 536, 537, 538, 539, 540, 541, 542, 543, 544
 545, 546, 547, 548, 549, 550, 551, 552, 553, 554, 555, 556, 557, 558, 559, 560
 561, 562, 563, 564, 565, 566, 567, 568, 569, 570, 571, 572, 573, 574, 575, 576
 577, 578, 579, 580, 581, 582, 583, 584, 585, 586, 587, 588, 589, 590, 591, 592
 593, 594, 595, 596, 597, 598, 599, 600, 601, 602, 603, 604, 605, 606, 607, 608
 609, 610, 611, 612, 613, 614, 615, 616, 617, 618, 619, 620, 621, 622, 623, 624
 625, 626, 627, 628, 629, 630, 631, 632, 633, 634, 635, 636, 637, 638, 639, 640
 641, 642, 643, 644, 645, 646, 647, 648, 649, 650, 651, 652, 653, 654, 655, 656
 657, 658, 659, 660, 661, 662, 663, 664, 665, 666, 667, 668, 669, 670, 671, 672
 673, 674, 675, 676, 677, 678, 679, 680, 681, 682, 683, 684, 685, 686, 687, 688
 689, 690, 691, 692, 693, 694, 695, 696, 697, 698, 699, 700, 701, 702, 703, 704
 705, 706, 707, 708, 709, 710, 711, 712, 713, 714, 715, 716, 717, 718, 719, 720
 721, 722, 723, 724, 725, 726, 727, 728, 729, 730, 731, 732, 733, 734, 735, 736
 737, 738, 739, 740, 741, 742, 743, 744, 745, 746, 747, 748, 749, 750, 751, 752
*Nset, nset=P3
   31,   38,   45,   52,   58,  103,  104,  127,  128,  131,  132,  135,  136,  139,  140, 1529
 1530, 1531, 1532, 1533, 1534, 1535, 1536, 1537, 1538, 1539, 1540, 1541, 1542, 1543, 1544, 1545
 1546, 1547, 1548, 1916, 1917, 1918, 1919, 1920, 1921, 1922, 1923, 1924, 1925, 1926, 1927, 1928
 1929, 1930, 1931, 1932, 1933, 1934, 1935, 1975, 1976, 1977, 1978, 1979, 1980, 1981, 1982, 1983
 1984, 1985, 1986, 1987, 1988, 1989, 1990, 1991, 1992, 1993, 1994, 2034, 2035, 2036, 2037, 2038
 2039, 2040, 2041, 2042, 2043, 2044, 2045, 2046, 2047, 2048, 2049, 2050, 2051, 2052, 2053, 2093
 2094, 2095, 2096, 2097, 2098, 2099, 2100, 2101, 2102, 2103, 2104, 2105, 2106, 2107, 2108, 2109
 2110, 2111, 2112
*Elset, elset=P3
 1498, 1499, 1500, 1501, 1502, 1503, 1504, 1505, 1506, 1507, 1508, 1509, 1510, 1511, 1512, 1513
 1514, 1515, 1516, 1517, 1518, 1519, 1913, 1914, 1915, 1916, 1917, 1918, 1919, 1920, 1921, 1922
 1923, 1924, 1925, 1926, 1927, 1928, 1929, 1930, 1931, 1932, 1933, 1934, 1976, 1977, 1978, 1979
 1980, 1981, 1982, 1983, 1984, 1985, 1986, 1987, 1988, 1989, 1990, 1991, 1992, 1993, 1994, 1995
 1996, 1997, 2039, 2040, 2041, 2042, 2043, 2044, 2045, 2046, 2047, 2048, 2049, 2050, 2051, 2052
 2053, 2054, 2055, 2056, 2057, 2058, 2059, 2060, 2102, 2103, 2104, 2105, 2106, 2107, 2108, 2109
 2110, 2111, 2112, 2113, 2114, 2115, 2116, 2117, 2118, 2119, 2120, 2121, 2122, 2123
*Nset, nset=P4
    5,   35,   42,   49,   55,   61,   62,  125,  126,  129,  130,  133,  134,  137,  138,  834
  835,  836,  837,  838,  839,  840,  841,  842,  843,  844,  845,  846,  847,  848,  849,  850
  851,  852,  853,  854,  855,  856,  857,  858,  859,  860,  861,  862,  863,  864,  865,  866
  867,  868,  869,  870,  871,  872, 1877, 1878, 1879, 1880, 1881, 1882, 1883, 1884, 1885, 1886
 1887, 1888, 1889, 1890, 1891, 1892, 1893, 1894, 1895, 1896, 1897, 1898, 1899, 1900, 1901, 1902
 1903, 1904, 1905, 1906, 1907, 1908, 1909, 1910, 1911, 1912, 1913, 1914, 1915, 1936, 1937, 1938
 1939, 1940, 1941, 1942, 1943, 1944, 1945, 1946, 1947, 1948, 1949, 1950, 1951, 1952, 1953, 1954
 1955, 1956, 1957, 1958, 1959, 1960, 1961, 1962, 1963, 1964, 1965, 1966, 1967, 1968, 1969, 1970
 1971, 1972, 1973, 1974, 1995, 1996, 1997, 1998, 1999, 2000, 2001, 2002, 2003, 2004, 2005, 2006
 2007, 2008, 2009, 2010, 2011, 2012, 2013, 2014, 2015, 2016, 2017, 2018, 2019, 2020, 2021, 2022
 2023, 2024, 2025, 2026, 2027, 2028, 2029, 2030, 2031, 2032, 2033, 2054, 2055, 2056, 2057, 2058
 2059, 2060, 2061, 2062, 2063, 2064, 2065, 2066, 2067, 2068, 2069, 2070, 2071, 2072, 2073, 2074
 2075, 2076, 2077, 2078, 2079, 2080, 2081, 2082, 2083, 2084, 2085, 2086, 2087, 2088, 2089, 2090
 2091, 2092
*Elset, elset=P4
  753,  754,  755,  756,  757,  758,  759,  760,  761,  762,  763,  764,  765,  766,  767,  768
  769,  770,  771,  772,  773,  774,  775,  776,  777,  778,  779,  780,  781,  782,  783,  784
  785,  786,  787,  788,  789,  790,  791,  792,  793, 1872, 1873, 1874, 1875, 1876, 1877, 1878
 1879, 1880, 1881, 1882, 1883, 1884, 1885, 1886, 1887, 1888, 1889, 1890, 1891, 1892, 1893, 1894
 1895, 1896, 1897, 1898, 1899, 1900, 1901, 1902, 1903, 1904, 1905, 1906, 1907, 1908, 1909, 1910
 1911, 1912, 1935, 1936, 1937, 1938, 1939, 1940, 1941, 1942, 1943, 1944, 1945, 1946, 1947, 1948
 1949, 1950, 1951, 1952, 1953, 1954, 1955, 1956, 1957, 1958, 1959, 1960, 1961, 1962, 1963, 1964
 1965, 1966, 1967, 1968, 1969, 1970, 1971, 1972, 1973, 1974, 1975, 1998, 1999, 2000, 2001, 2002
 2003, 2004, 2005, 2006, 2007, 2008, 2009, 2010, 2011, 2012, 2013, 2014, 2015, 2016, 2017, 2018
 2019, 2020, 2021, 2022, 2023, 2024, 2025, 2026, 2027, 2028, 2029, 2030, 2031, 2032, 2033, 2034
 2035, 2036, 2037, 2038, 2061, 2062, 2063, 2064, 2065, 2066, 2067, 2068, 2069, 2070, 2071, 2072
 2073, 2074, 2075, 2076, 2077, 2078, 2079, 2080, 2081, 2082, 2083, 2084, 2085, 2086, 2087, 2088
 2089, 2090, 2091, 2092, 2093, 2094, 2095, 2096, 2097, 2098, 2099, 2100, 2101
*Nset, nset=P5
    1,    2,    4,    6,    7,    8,    9,   10,   11,   12,   13,   14,   15,   16,   17,   18
   19,   20,   21,   22,   23,   24,   25,   26,   27,   29,   30,   32,   36,   37,   39,   43
   44,   46,   50,   51,   53,   56,   57,   59,   63,   64,   65,   66,   67,   68,   69,   70
   71,   72,   73,   74,   75,   76,   77,   78,   79,   80,   81,   82,   83,   84,   85,   86
   87,   88,   89,   90,   91,   92,   93,   94,   95,   96,   97,   98,   99,  100,  101,  102
  105,  106,  107,  108,  109,  110,  111,  112,  113,  114,  115,  116,  117,  118,  119,  120
  121,  122,  123,  124,  141,  142,  143,  144,  145,  146,  147,  157,  158,  159,  160,  161
  162,  163,  164,  165,  166,  167,  168,  169,  170,  171,  178,  179,  180,  181,  182,  183
  184,  185,  186,  187,  188,  189,  190,  191,  192,  193,  194,  195,  196,  197,  198,  199
  200,  201,  202,  203,  204,  205,  206,  207,  208,  209,  210,  211,  212,  213,  214,  215
  216,  217,  218,  219,  220,  221,  222,  223,  224,  225,  226,  227,  228,  229,  230,  231
  232,  233,  234,  235,  236,  237,  238,  239,  240,  241,  242,  243,  244,  245,  246,  247
  248,  249,  250,  251,  252,  253,  254,  255,  256,  257,  258,  259,  260,  261,  262,  263
  264,  265,  266,  267,  268,  269,  270,  271,  272,  273,  274,  275,  276,  277,  278,  279
  280,  281,  282,  283,  284,  285,  286,  287,  288,  289,  290,  291,  292,  293,  294,  295
  296,  297,  298,  299,  300,  301,  302,  303,  304,  305,  306,  307,  308,  309,  310,  311
  312,  313,  314,  315,  316,  317,  318,  319,  320,  321,  322,  323,  324,  325,  326,  327
  328,  329,  330,  331,  332,  333,  334,  335,  336,  337,  338,  339,  340,  341,  342,  343
  344,  345,  346,  347,  348,  349,  350,  351,  352,  353,  354,  355,  356,  357,  358,  359
  360,  361,  362,  363,  364,  365,  366,  367,  368,  369,  370,  371,  372,  373,  374,  375
  376,  377,  378,  379,  380,  381,  382,  383,  384,  385,  386,  387,  388,  389,  390,  391
  392,  393,  394,  395,  396,  397,  398,  399,  400,  401,  402,  403,  404,  405,  406,  407
  408,  409,  410,  411,  412,  413,  414,  415,  416,  417,  418,  419,  420,  421,  422,  423
  424,  425,  426,  427,  428,  429,  430,  431,  432,  433,  434,  435,  436,  437,  438,  439
  440,  441,  442,  443,  444,  445,  446,  447,  448,  449,  450,  451,  452,  453,  454,  455
  456,  457,  458,  459,  460,  461,  462,  463,  464,  465,  466,  467,  468,  469,  470,  471
  472,  473,  474,  475,  476,  477,  478,  479,  480,  481,  482,  483,  873,  874,  875,  876
  877,  878,  879,  880,  881,  882,  883,  884,  885,  886,  887,  888,  889,  890,  891,  892
  893,  894,  895,  896,  897,  898,  899,  900,  901,  902,  903,  904,  905,  906,  907,  908
  909,  910,  911,  912,  913,  914,  915,  916,  917,  918,  919,  920,  921,  922,  923,  924
  925,  926,  927,  928,  929,  930,  931,  932,  933,  934,  935,  936,  937,  938,  939,  940
  941,  942,  943,  944,  945,  946,  947,  948,  949,  950,  951,  952,  953,  954,  955,  956
  957,  958,  959,  960,  961,  962,  963,  964,  965,  966,  967,  968,  969,  970,  971,  972
  973,  974,  975,  976,  977,  978,  979,  980,  981,  982,  983,  984,  985,  986,  987,  988
  989,  990,  991,  992,  993,  994,  995,  996,  997,  998,  999, 1000, 1001, 1002, 1003, 1004
 1005, 1006, 1007, 1008, 1009, 1010, 1011, 1012, 1013, 1014, 1015, 1016, 1017, 1018, 1019, 1020
 1021, 1022, 1023, 1024, 1025, 1026, 1027, 1028, 1029, 1030, 1031, 1032, 1033, 1034, 1035, 1036
 1037, 1038, 1039, 1040, 1041, 1042, 1043, 1044, 1045, 1046, 1047, 1048, 1049, 1050, 1051, 1052
 1053, 1054, 1055, 1056, 1057, 1058, 1059, 1060, 1061, 1062, 1063, 1064, 1065, 1066, 1067, 1068
 1069, 1070, 1071, 1072, 1073, 1074, 1075, 1076, 1077, 1078, 1079, 1080, 1081, 1082, 1083, 1084
 1085, 1086, 1087, 1088, 1089, 1090, 1091, 1092, 1093, 1094, 1095, 1096, 1097, 1098, 1099, 1100
 1101, 1102, 1103, 1104, 1105, 1106, 1107, 1108, 1109, 1110, 1111, 1112, 1113, 1114, 1115, 1116
 1117, 1118, 1119, 1120, 1121, 1122, 1123, 1124, 1125, 1126, 1127, 1128, 1129, 1130, 1131, 1132
 1133, 1134, 1135, 1136, 1137, 1138, 1139, 1140, 1141, 1142, 1143, 1144, 1145, 1146, 1147, 1148
 1149, 1150, 1151, 1152, 1153, 1154, 1155, 1156, 1157, 1158, 1159, 1160, 1161, 1162, 1163, 1164
 1165, 1166, 1167, 1168, 1169, 1170, 1171, 1172, 1173, 1174, 1175, 1176, 1177, 1178, 1179, 1180
 1181, 1182, 1183, 1184, 1185, 1186, 1187, 1188, 1189, 1190, 1191, 1192, 1193, 1194, 1195, 1196
 1197, 1198, 1199, 1200, 1201, 1202, 1203, 1204, 1205, 1206, 1207, 1208, 1209, 1210, 1211, 1212
 1213, 1214, 1215, 1216, 1217, 1218, 1219, 1220, 1221, 1222, 1223, 1224, 1225, 1226, 1227, 1228
 1229, 1230, 1231, 1232, 1233, 1234, 1235, 1236, 1237, 1238, 1239, 1240, 1241, 1242, 1243, 1244
 1245, 1246, 1247, 1248, 1249, 1250, 1251, 1252, 1253, 1254, 1255, 1256, 1257, 1258, 1259, 1260
 1261, 1262, 1263, 1264, 1265, 1266, 1267, 1268, 1269, 1270, 1271, 1272, 1273, 1274, 1275, 1276
 1277, 1278, 1279, 1280, 1281, 1282, 1283, 1284, 1285, 1286, 1287, 1288, 1289, 1290, 1291, 1292
 1293, 1294, 1295, 1296, 1297, 1298, 1299, 1300, 1301, 1302, 1303, 1304, 1305, 1306, 1307, 1308
 1309, 1310, 1311, 1312, 1313, 1314, 1315, 1316, 1317, 1318, 1319, 1320, 1321, 1322, 1323, 1324
 1325, 1326, 1327, 1328, 1329, 1330, 1331, 1332, 1333, 1334, 1335, 1336, 1337, 1338, 1339, 1340
 1341, 1342, 1343, 1344, 1345, 1346, 1347, 1348, 1349, 1350, 1351, 1352, 1353, 1354, 1355, 1356
 1357, 1358, 1359, 1360, 1361, 1362, 1363, 1364, 1365, 1366, 1367, 1368, 1369, 1370, 1371, 1372
 1373, 1374, 1375, 1376, 1377, 1378, 1379, 1380, 1381, 1382, 1383, 1384, 1385, 1386, 1387, 1388
 1389, 1390, 1391, 1392, 1393, 1394, 1395, 1396, 1397, 1398, 1399, 1400, 1401, 1402, 1403, 1404
 1405, 1406, 1407, 1408, 1409, 1410, 1411, 1412, 1413, 1414, 1415, 1416, 1417, 1418, 1419, 1420
 1421, 1422, 1423, 1424, 1425, 1426, 1427, 1428, 1429, 1430, 1431, 1432, 1433, 1434, 1435, 1436
 1437, 1438, 1439, 1440, 1441, 1442, 1443, 1444, 1445, 1446, 1447, 1448, 1449, 1450, 1451, 1452
 1453, 1454, 1455, 1456, 1457, 1458, 1459, 1460, 1461, 1462, 1463, 1464, 1465, 1466, 1467, 1468
 1469, 1470, 1471, 1472, 1473, 1474, 1475, 1476, 1477, 1478, 1479, 1480, 1481, 1482, 1483, 1484
 1485, 1486, 1487, 1488, 1489, 1490, 1491, 1492, 1493, 1494, 1495, 1496, 1497, 1498, 1499, 1500
 1501, 1502, 1503, 1504, 1505, 1506, 1507, 1508, 1509, 1510, 1511, 1512, 1513, 1514, 1515, 1516
 1517, 1518, 1519, 1520, 1521, 1522, 1523, 1524, 1525, 1526, 1527, 1528, 1549, 1550, 1551, 1552
 1553, 1554, 1555, 1556, 1557, 1558, 1559, 1560, 1561, 1562, 1563, 1564, 1565, 1566, 1567, 1568
 1569, 1570, 1571, 1572, 1573, 1574, 1575, 1576, 1577, 1578, 1579, 1580, 1581, 1582, 1583, 1584
 1585, 1586, 1587, 1588, 1589, 1590, 1591, 1592, 1593, 1594, 1595, 1596, 1597, 1598, 1599, 1600
 1601, 1602, 1603, 1604, 1605, 1606, 1607, 1608, 1609, 1610, 1611, 1612, 1613, 1614, 1615, 1616
 1617, 1618, 1619, 1620, 1621, 1622, 1623, 1624, 1625, 1626, 1627, 1628, 1629, 1630, 1631, 1632
 1633, 1634, 1635, 1636, 1637, 1638, 1639, 1640, 1641, 1642, 1643, 1644, 1645, 1646, 1647, 1648
 1649, 1650, 1651, 1652, 1653, 1654, 1655, 1656, 1657, 1658, 1659, 1660, 1661, 1662, 1663, 1664
 1665, 1666, 1667, 1668, 1669, 1670, 1671, 1672, 1673, 1674, 1675, 1676, 1677, 1678, 1679, 1680
 1681, 1682, 1683, 1684, 1685, 1686, 1687, 1688, 1689, 1690, 1691, 1692, 1693, 1694, 1695, 1696
 1697, 1698, 1699, 1700, 1701, 1702, 1703, 1704, 1705, 1706, 1707, 1708, 1709, 1710, 1711, 1712
 1713, 1714, 1715, 1716, 1717, 1718, 1719, 1720, 1721, 1722, 1723, 1724, 1725, 1726, 1727, 1728
 1729, 1730, 1731, 1732, 1733, 1734, 1735, 1736, 1737, 1738, 1739, 1740, 1741, 1742, 1743, 1744
 1745, 1746, 1747, 1748, 1749, 1750, 1751, 1752, 1753, 1754, 1755, 1756, 1757, 1758, 1759, 1760
 1761, 1762, 1763, 1764, 1765, 1766, 1767, 1768, 1769, 1770, 1771, 1772, 1773, 1774, 1775, 1776
 1777, 1778, 1779, 1780, 1781, 1782, 1783, 1784, 1785, 1786, 1787, 1788, 1789, 1790, 1791, 1792
 1793, 1794, 1795, 1796, 1797, 1798, 1799, 1800, 1801, 1802, 1803, 1804, 1805, 1806, 1807, 1808
 1809, 1810, 1811, 1812, 1813, 1814, 1815, 1816, 1817, 1818, 1819, 1820, 1821, 1822, 1823, 1824
 1825, 1826, 1827, 1828, 1829, 1830, 1831, 1832, 1833, 1834, 1835, 1836, 1837, 1838, 1839, 1840
 1841, 1842, 1843, 1844, 1845, 1846, 1847, 1848, 1849, 1850, 1851, 1852, 1853, 1854, 1855, 1856
 1857, 1858, 1859, 1860, 1861, 1862, 1863, 1864, 1865, 1866, 1867, 1868, 1869, 1870, 1871, 1872
 1873, 1874, 1875, 1876
*Elset, elset=P5
    1,    2,    3,    4,    5,    6,    7,    8,   19,   20,   21,   22,   23,   24,   25,   26
   27,   28,   29,   30,   31,   32,   33,   34,   42,   43,   44,   45,   46,   47,   48,   49
   50,   51,   52,   53,   54,   55,   56,   57,   58,   59,   60,   61,   62,   63,   64,   65
   66,   67,   68,   69,   70,   71,   72,   73,   74,   75,   76,   77,   78,   79,   80,   81
   82,   83,   84,   85,   86,   87,   88,   89,   90,   91,   92,   93,   94,   95,   96,   97
   98,   99,  100,  101,  102,  103,  104,  105,  106,  107,  108,  109,  110,  111,  112,  113
  114,  115,  116,  117,  118,  119,  120,  121,  122,  123,  124,  125,  126,  127,  128,  129
  130,  131,  132,  133,  134,  135,  136,  137,  138,  139,  140,  141,  142,  143,  144,  145
  146,  147,  148,  149,  150,  151,  152,  153,  154,  155,  156,  157,  158,  159,  160,  161
  162,  163,  164,  165,  166,  167,  168,  169,  170,  171,  172,  173,  174,  175,  176,  177
  178,  179,  180,  181,  182,  183,  184,  185,  186,  187,  188,  189,  190,  191,  192,  193
  194,  195,  196,  197,  198,  199,  200,  201,  202,  203,  204,  205,  206,  207,  208,  209
  210,  211,  212,  213,  214,  215,  216,  217,  218,  219,  220,  221,  222,  223,  224,  225
  226,  227,  228,  229,  230,  231,  232,  233,  234,  235,  236,  237,  238,  239,  240,  241
  242,  243,  244,  245,  246,  247,  248,  249,  250,  251,  252,  253,  254,  255,  256,  257
  258,  259,  260,  261,  262,  263,  264,  265,  266,  267,  268,  269,  270,  271,  272,  273
  274,  275,  276,  277,  278,  279,  280,  281,  282,  283,  284,  285,  286,  287,  288,  289
  290,  291,  292,  293,  294,  295,  296,  297,  298,  299,  300,  301,  302,  303,  304,  305
  306,  307,  308,  309,  310,  311,  312,  313,  314,  315,  316,  317,  318,  319,  320,  321
  322,  323,  324,  325,  326,  327,  328,  329,  330,  331,  332,  333,  334,  335,  336,  337
  338,  339,  340,  341,  342,  343,  344,  345,  346,  347,  348,  349,  350,  351,  352,  353
  354,  355,  356,  357,  358,  359,  360,  361,  362,  363,  364,  365,  366,  367,  368,  369
  794,  795,  796,  797,  798,  799,  800,  801,  802,  803,  804,  805,  806,  807,  808,  809
  810,  811,  812,  813,  814,  815,  816,  817,  818,  819,  820,  821,  822,  823,  824,  825
  826,  827,  828,  829,  830,  831,  832,  833,  834,  835,  836,  837,  838,  839,  840,  841
  842,  843,  844,  845,  846,  847,  848,  849,  850,  851,  852,  853,  854,  855,  856,  857
  858,  859,  860,  861,  862,  863,  864,  865,  866,  867,  868,  869,  870,  871,  872,  873
  874,  875,  876,  877,  878,  879,  880,  881,  882,  883,  884,  885,  886,  887,  888,  889
  890,  891,  892,  893,  894,  895,  896,  897,  898,  899,  900,  901,  902,  903,  904,  905
  906,  907,  908,  909,  910,  911,  912,  913,  914,  915,  916,  917,  918,  919,  920,  921
  922,  923,  924,  925,  926,  927,  928,  929,  930,  931,  932,  933,  934,  935,  936,  937
  938,  939,  940,  941,  942,  943,  944,  945,  946,  947,  948,  949,  950,  951,  952,  953
  954,  955,  956,  957,  958,  959,  960,  961,  962,  963,  964,  965,  966,  967,  968,  969
  970,  971,  972,  973,  974,  975,  976,  977,  978,  979,  980,  981,  982,  983,  984,  985
  986,  987,  988,  989,  990,  991,  992,  993,  994,  995,  996,  997,  998,  999, 1000, 1001
 1002, 1003, 1004, 1005, 1006, 1007, 1008, 1009, 1010, 1011, 1012, 1013, 1014, 1015, 1016, 1017
 1018, 1019, 1020, 1021, 1022, 1023, 1024, 1025, 1026, 1027, 1028, 1029, 1030, 1031, 1032, 1033
 1034, 1035, 1036, 1037, 1038, 1039, 1040, 1041, 1042, 1043, 1044, 1045, 1046, 1047, 1048, 1049
 1050, 1051, 1052, 1053, 1054, 1055, 1056, 1057, 1058, 1059, 1060, 1061, 1062, 1063, 1064, 1065
 1066, 1067, 1068, 1069, 1070, 1071, 1072, 1073, 1074, 1075, 1076, 1077, 1078, 1079, 1080, 1081
 1082, 1083, 1084, 1085, 1086, 1087, 1088, 1089, 1090, 1091, 1092, 1093, 1094, 1095, 1096, 1097
 1098, 1099, 1100, 1101, 1102, 1103, 1104, 1105, 1106, 1107, 1108, 1109, 1110, 1111, 1112, 1113
 1114, 1115, 1116, 1117, 1118, 1119, 1120, 1121, 1122, 1123, 1124, 1125, 1126, 1127, 1128, 1129
 1130, 1131, 1132, 1133, 1134, 1135, 1136, 1137, 1138, 1139, 1140, 1141, 1142, 1143, 1144, 1145
 1146, 1147, 1148, 1149, 1150, 1151, 1152, 1153, 1154, 1155, 1156, 1157, 1158, 1159, 1160, 1161
 1162, 1163, 1164, 1165, 1166, 1167, 1168, 1169, 1170, 1171, 1172, 1173, 1174, 1175, 1176, 1177
 1178, 1179, 1180, 1181, 1182, 1183, 1184, 1185, 1186, 1187, 1188, 1189, 1190, 1191, 1192, 1193
 1194, 1195, 1196, 1197, 1198, 1199, 1200, 1201, 1202, 1203, 1204, 1205, 1206, 1207, 1208, 1209
 1210, 1211, 1212, 1213, 1214, 1215, 1216, 1217, 1218, 1219, 1220, 1221, 1222, 1223, 1224, 1225
 1226, 1227, 1228, 1229, 1230, 1231, 1232, 1233, 1234, 1235, 1236, 1237, 1238, 1239, 1240, 1241
 1242, 1243, 1244, 1245, 1246, 1247, 1248, 1249, 1250, 1251, 1252, 1253, 1254, 1255, 1256, 1257
 1258, 1259, 1260, 1261, 1262, 1263, 1264, 1265, 1266, 1267, 1268, 1269, 1270, 1271, 1272, 1273
 1274, 1275, 1276, 1277, 1278, 1279, 1280, 1281, 1282, 1283, 1284, 1285, 1286, 1287, 1288, 1289
 1290, 1291, 1292, 1293, 1294, 1295, 1296, 1297, 1298, 1299, 1300, 1301, 1302, 1303, 1304, 1305
 1306, 1307, 1308, 1309, 1310, 1311, 1312, 1313, 1314, 1315, 1316, 1317, 1318, 1319, 1320, 1321
 1322, 1323, 1324, 1325, 1326, 1327, 1328, 1329, 1330, 1331, 1332, 1333, 1334, 1335, 1336, 1337
 1338, 1339, 1340, 1341, 1342, 1343, 1344, 1345, 1346, 1347, 1348, 1349, 1350, 1351, 1352, 1353
 1354, 1355, 1356, 1357, 1358, 1359, 1360, 1361, 1362, 1363, 1364, 1365, 1366, 1367, 1368, 1369
 1370, 1371, 1372, 1373, 1374, 1375, 1376, 1377, 1378, 1379, 1380, 1381, 1382, 1383, 1384, 1385
 1386, 1387, 1388, 1389, 1390, 1391, 1392, 1393, 1394, 1395, 1396, 1397, 1398, 1399, 1400, 1401
 1402, 1403, 1404, 1405, 1406, 1407, 1408, 1409, 1410, 1411, 1412, 1413, 1414, 1415, 1416, 1417
 1418, 1419, 1420, 1421, 1422, 1423, 1424, 1425, 1426, 1427, 1428, 1429, 1430, 1431, 1432, 1433
 1434, 1435, 1436, 1437, 1438, 1439, 1440, 1441, 1442, 1443, 1444, 1445, 1446, 1447, 1448, 1449
 1450, 1451, 1452, 1453, 1454, 1455, 1456, 1457, 1458, 1459, 1460, 1461, 1462, 1463, 1464, 1465
 1466, 1467, 1468, 1469, 1470, 1471, 1472, 1473, 1474, 1475, 1476, 1477, 1478, 1479, 1480, 1481
 1482, 1483, 1484, 1485, 1486, 1487, 1488, 1489, 1490, 1491, 1492, 1493, 1494, 1495, 1496, 1497
 1520, 1521, 1522, 1523, 1524, 1525, 1526, 1527, 1528, 1529, 1530, 1531, 1532, 1533, 1534, 1535
 1536, 1537, 1538, 1539, 1540, 1541, 1542, 1543, 1544, 1545, 1546, 1547, 1548, 1549, 1550, 1551
 1552, 1553, 1554, 1555, 1556, 1557, 1558, 1559, 1560, 1561, 1562, 1563, 1564, 1565, 1566, 1567
 1568, 1569, 1570, 1571, 1572, 1573, 1574, 1575, 1576, 1577, 1578, 1579, 1580, 1581, 1582, 1583
 1584, 1585, 1586, 1587, 1588, 1589, 1590, 1591, 1592, 1593, 1594, 1595, 1596, 1597, 1598, 1599
 1600, 1601, 1602, 1603, 1604, 1605, 1606, 1607, 1608, 1609, 1610, 1611, 1612, 1613, 1614, 1615
 1616, 1617, 1618, 1619, 1620, 1621, 1622, 1623, 1624, 1625, 1626, 1627, 1628, 1629, 1630, 1631
 1632, 1633, 1634, 1635, 1636, 1637, 1638, 1639, 1640, 1641, 1642, 1643, 1644, 1645, 1646, 1647
 1648, 1649, 1650, 1651, 1652, 1653, 1654, 1655, 1656, 1657, 1658, 1659, 1660, 1661, 1662, 1663
 1664, 1665, 1666, 1667, 1668, 1669, 1670, 1671, 1672, 1673, 1674, 1675, 1676, 1677, 1678, 1679
 1680, 1681, 1682, 1683, 1684, 1685, 1686, 1687, 1688, 1689, 1690, 1691, 1692, 1693, 1694, 1695
 1696, 1697, 1698, 1699, 1700, 1701, 1702, 1703, 1704, 1705, 1706, 1707, 1708, 1709, 1710, 1711
 1712, 1713, 1714, 1715, 1716, 1717, 1718, 1719, 1720, 1721, 1722, 1723, 1724, 1725, 1726, 1727
 1728, 1729, 1730, 1731, 1732, 1733, 1734, 1735, 1736, 1737, 1738, 1739, 1740, 1741, 1742, 1743
 1744, 1745, 1746, 1747, 1748, 1749, 1750, 1751, 1752, 1753, 1754, 1755, 1756, 1757, 1758, 1759
 1760, 1761, 1762, 1763, 1764, 1765, 1766, 1767, 1768, 1769, 1770, 1771, 1772, 1773, 1774, 1775
 1776, 1777, 1778, 1779, 1780, 1781, 1782, 1783, 1784, 1785, 1786, 1787, 1788, 1789, 1790, 1791
 1792, 1793, 1794, 1795, 1796, 1797, 1798, 1799, 1800, 1801, 1802, 1803, 1804, 1805, 1806, 1807
 1808, 1809, 1810, 1811, 1812, 1813, 1814, 1815, 1816, 1817, 1818, 1819, 1820, 1821, 1822, 1823
 1824, 1825, 1826, 1827, 1828, 1829, 1830, 1831, 1832, 1833, 1834, 1835, 1836, 1837, 1838, 1839
 1840, 1841, 1842, 1843, 1844, 1845, 1846, 1847, 1848, 1849, 1850, 1851, 1852, 1853, 1854, 1855
 1856, 1857, 1858, 1859, 1860, 1861, 1862, 1863, 1864, 1865, 1866, 1867, 1868, 1869, 1870, 1871
*Nset, nset=P6
   61,  103,  125,  127,  129,  131,  133,  135,  137,  139, 2113, 2114, 2115, 2116, 2117, 2118
 2119, 2120, 2121, 2122, 2123, 2124, 2125, 2126, 2127, 2128, 2129, 2130, 2131, 2132, 2133, 2134
 2135, 2136, 2137, 2138, 2139, 2140, 2141, 2142, 2143, 2144, 2145, 2146, 2147, 2148, 2149, 2150
 2151, 2152, 2153, 2154, 2155, 2156, 2157, 2158, 2159, 2160, 2161, 2162, 2163, 2164, 2165, 2166
 2167, 2168, 2169, 2170, 2171, 2172, 2173, 2174, 2175, 2176, 2177, 2178, 2179, 2180, 2181, 2182
 2183, 2184, 2185, 2186, 2187, 2188, 2189, 2190, 2191, 2192, 2193, 2194, 2195, 2196, 2197, 2198
 2199, 2200, 2201, 2202, 2203, 2204, 2205, 2206, 2207, 2208, 2209, 2210, 2211, 2212, 2213, 2214
 2215, 2216, 2217, 2218, 2219, 2220, 2221, 2222, 2223, 2224, 2225, 2226, 2227, 2228, 2229, 2230
 2231, 2232, 2233, 2234, 2235, 2236, 2237, 2238, 2239, 2240, 2241, 2242, 2243, 2244, 2245, 2246
 2247, 2248, 2249, 2250, 2251, 2252, 2253, 2254, 2255, 2256, 2257, 2258, 2259, 2260, 2261, 2262
 2263, 2264, 2265, 2266, 2267, 2268, 2269, 2270, 2271, 2272, 2273, 2274, 2275, 2276, 2277, 2278
 2279, 2280, 2281, 2282, 2283, 2284, 2285, 2286, 2287, 2288, 2289, 2290, 2291, 2292, 2293, 2294
 2295, 2296, 2297, 2298, 2299, 2300, 2301, 2302, 2303, 2304, 2305, 2306, 2307, 2308, 2309, 2310
 2311, 2312, 2313, 2314, 2315, 2316, 2317, 2318, 2319, 2320, 2321, 2322, 2323, 2324, 2325, 2326
 2327,
*Elset, elset=P6, generate
 2124,  2343,     1
** Section: P5  Profile: C100
*Beam Section, elset=P5, material=S235JR, poisson = 0.3, temperature=GRADIENTS, section=ARBITRARY
5, 29.1607, 30., 29.1607, 48., 4.
-16.8393, 48., 4.
-16.8393, -48., 4.
29.1607, -48., 4.
29.1607, -30., 4.
0.,0.906351,0.422525
** Section: P2  Profile: C125
*Beam Section, elset=P2, material=S355JR, poisson = 0.3, temperature=GRADIENTS, section=ARBITRARY
5, 36.9745, 37.5, 36.9745, 60.5, 4.
-21.5255, 60.5, 4.
-21.5255, -60.5, 4.
36.9745, -60.5, 4.
36.9745, -37.5, 4.
1.,0.,0.
** Section: P4  Profile: C125
*Beam Section, elset=P4, material=S235JR, poisson = 0.3, temperature=GRADIENTS, section=ARBITRARY
5, 36.9745, 37.5, 36.9745, 60.5, 4.
-21.5255, 60.5, 4.
-21.5255, -60.5, 4.
36.9745, -60.5, 4.
36.9745, -37.5, 4.
1.,0.,0.
** Section: P3  Profile: C125
*Beam Section, elset=P3, material=S235JR, poisson = 0.3, temperature=GRADIENTS, section=ARBITRARY
5, 36.9745, 37.5, 36.9745, 60.5, 4.
-21.5255, 60.5, 4.
-21.5255, -60.5, 4.
36.9745, -60.5, 4.
36.9745, -37.5, 4.
1.,0.,0.
** Section: P6  Profile: C50
*Beam Section, elset=P6, material=S235JR, poisson = 0.3, temperature=GRADIENTS, section=ARBITRARY
3, 16.875, 22.5, -5.625, 22.5, 5.
-5.625, -22.5, 5.
16.875, -22.5, 5.
1.,0.,0.
*End Part
**  
**
** ASSEMBLY
**
*Assembly, name=Assembly
**  
*Instance, name=FRAME, part=SteelFrame
*End Instance
**  
*Nset, nset=BASES, instance=FRAME
  62, 104, 126, 128, 130, 132, 134, 136, 138, 140
*Nset, nset=CONTACT_ROW_1, instance=FRAME
  39,  53, 105, 106, 107, 108, 109, 110, 111, 112, 113, 114, 115, 116, 117, 118
 119, 120, 121, 122, 123, 124
*Nset, nset=CONTACT_ROW_2, instance=FRAME
  37,  51,  83,  84,  85,  86,  87,  88,  89,  90,  91,  92,  93,  94,  95,  96
  97,  98,  99, 100, 101, 102
*Nset, nset=CONTACT_ROW_3, instance=FRAME
 36, 50, 63, 64, 65, 66, 67, 68, 69, 70, 71, 72, 73, 74, 75, 76
 77, 78, 79, 80, 81, 82
*Nset, nset=CONTACT_ROW_4, instance=FRAME
  1,  4,  6,  7,  8,  9, 10, 11, 12, 13, 14, 16, 17, 18, 19, 20
 21, 22, 23, 24, 25, 26
*End Assembly
** 
** MATERIALS
** 
*Material, name=S235JR
*Density
 7.85e-09,
*Elastic
210000., 0.3
*Material, name=S355JR
*Density
 7.85e-09,
*Elastic
210000., 0.3
** 
** BOUNDARY CONDITIONS
** 
** Name: GroundFixity Type: Symmetry/Antisymmetry/Encastre
*Boundary
BASES, ENCASTRE
** ----------------------------------------------------------------
** 
** STEP: D
** 
*Step, name=D, nlgeom=NO
*Static
1., 1., 1e-05, 1.
** 
** LOADS
** 
** Name: D_Contact_1   Type: Concentrated force
*Cload, op=NEW
CONTACT_ROW_1, 2, 0.
CONTACT_ROW_1, 3, -126.993
** Name: D_Contact_2   Type: Concentrated force
*Cload, op=NEW
CONTACT_ROW_2, 2, 0.
CONTACT_ROW_2, 3, -126.993
** Name: D_Contact_3   Type: Concentrated force
*Cload, op=NEW
CONTACT_ROW_3, 2, 0.
CONTACT_ROW_3, 3, -126.993
** Name: D_Contact_4   Type: Concentrated force
*Cload, op=NEW
CONTACT_ROW_4, 2, 0.
CONTACT_ROW_4, 3, -126.993
** Name: D_SteelGravity   Type: Gravity
*Dload, op=NEW
, GRAV, 9810., 0., 0., -1.
** 
** OUTPUT REQUESTS
** 
*Restart, write, frequency=0
** 
** FIELD OUTPUT: Nodal
** 
*Output, field, frequency=99999
*Node Output
RF, RM, U
** 
** FIELD OUTPUT: Section_P2
** 
*Element Output, elset=FRAME.P2, directions=YES
1, 2, 3, 4, 5, 6, 7, 8, 9, 10, 11
S, SF
** 
** FIELD OUTPUT: Section_P3
** 
*Element Output, elset=FRAME.P3, directions=YES
1, 2, 3, 4, 5, 6, 7, 8, 9, 10, 11
S, SF
** 
** FIELD OUTPUT: Section_P4
** 
*Element Output, elset=FRAME.P4, directions=YES
1, 2, 3, 4, 5, 6, 7, 8, 9, 10, 11
S, SF
** 
** FIELD OUTPUT: Section_P5
** 
*Element Output, elset=FRAME.P5, directions=YES
1, 2, 3, 4, 5, 6, 7, 8, 9, 10, 11
S, SF
** 
** FIELD OUTPUT: Section_P6
** 
*Element Output, elset=FRAME.P6, directions=YES
1, 2, 3, 4, 5, 6, 7
S, SF
** 
** HISTORY OUTPUT: Energy
** 
*Output, history
*Energy Output
ALLSE, ALLWK
*End Step
** ----------------------------------------------------------------
** 
** STEP: S
** 
*Step, name=S, nlgeom=NO
*Static
1., 1., 1e-05, 1.
** 
** LOADS
** 
** Name: D_Contact_1   Type: Concentrated force
*Cload, op=NEW
** Name: D_Contact_2   Type: Concentrated force
*Cload, op=NEW
** Name: D_Contact_3   Type: Concentrated force
*Cload, op=NEW
** Name: D_Contact_4   Type: Concentrated force
*Cload, op=NEW
** Name: D_SteelGravity   Type: Gravity
*Dload, op=NEW
** Name: S_Contact_1   Type: Concentrated force
*Cload, op=NEW
CONTACT_ROW_1, 2, 0.
CONTACT_ROW_1, 3, -733.2
** Name: S_Contact_2   Type: Concentrated force
*Cload, op=NEW
CONTACT_ROW_2, 2, 0.
CONTACT_ROW_2, 3, -733.2
** Name: S_Contact_3   Type: Concentrated force
*Cload, op=NEW
CONTACT_ROW_3, 2, 0.
CONTACT_ROW_3, 3, -733.2
** Name: S_Contact_4   Type: Concentrated force
*Cload, op=NEW
CONTACT_ROW_4, 2, 0.
CONTACT_ROW_4, 3, -733.2
** 
** OUTPUT REQUESTS
** 
*Restart, write, frequency=0
** 
** FIELD OUTPUT: Nodal
** 
*Output, field, frequency=99999
*Node Output
RF, RM, U
** 
** FIELD OUTPUT: Section_P2
** 
*Element Output, elset=FRAME.P2, directions=YES
1, 2, 3, 4, 5, 6, 7, 8, 9, 10, 11
S, SF
** 
** FIELD OUTPUT: Section_P3
** 
*Element Output, elset=FRAME.P3, directions=YES
1, 2, 3, 4, 5, 6, 7, 8, 9, 10, 11
S, SF
** 
** FIELD OUTPUT: Section_P4
** 
*Element Output, elset=FRAME.P4, directions=YES
1, 2, 3, 4, 5, 6, 7, 8, 9, 10, 11
S, SF
** 
** FIELD OUTPUT: Section_P5
** 
*Element Output, elset=FRAME.P5, directions=YES
1, 2, 3, 4, 5, 6, 7, 8, 9, 10, 11
S, SF
** 
** FIELD OUTPUT: Section_P6
** 
*Element Output, elset=FRAME.P6, directions=YES
1, 2, 3, 4, 5, 6, 7
S, SF
** 
** HISTORY OUTPUT: Energy
** 
*Output, history
*Energy Output
ALLSE, ALLWK
*End Step
** ----------------------------------------------------------------
** 
** STEP: W
** 
*Step, name=W, nlgeom=NO
*Static
1., 1., 1e-05, 1.
** 
** LOADS
** 
** Name: S_Contact_1   Type: Concentrated force
*Cload, op=NEW
** Name: S_Contact_2   Type: Concentrated force
*Cload, op=NEW
** Name: S_Contact_3   Type: Concentrated force
*Cload, op=NEW
** Name: S_Contact_4   Type: Concentrated force
*Cload, op=NEW
** Name: W_Contact_1   Type: Concentrated force
*Cload, op=NEW
CONTACT_ROW_1, 2, 35.556
CONTACT_ROW_1, 3, -76.2707
** Name: W_Contact_2   Type: Concentrated force
*Cload, op=NEW
CONTACT_ROW_2, 2, 35.556
CONTACT_ROW_2, 3, -76.2707
** Name: W_Contact_3   Type: Concentrated force
*Cload, op=NEW
CONTACT_ROW_3, 2, 35.556
CONTACT_ROW_3, 3, -76.2707
** Name: W_Contact_4   Type: Concentrated force
*Cload, op=NEW
CONTACT_ROW_4, 2, 35.556
CONTACT_ROW_4, 3, -76.2707
** 
** OUTPUT REQUESTS
** 
*Restart, write, frequency=0
** 
** FIELD OUTPUT: Nodal
** 
*Output, field, frequency=99999
*Node Output
RF, RM, U
** 
** FIELD OUTPUT: Section_P2
** 
*Element Output, elset=FRAME.P2, directions=YES
1, 2, 3, 4, 5, 6, 7, 8, 9, 10, 11
S, SF
** 
** FIELD OUTPUT: Section_P3
** 
*Element Output, elset=FRAME.P3, directions=YES
1, 2, 3, 4, 5, 6, 7, 8, 9, 10, 11
S, SF
** 
** FIELD OUTPUT: Section_P4
** 
*Element Output, elset=FRAME.P4, directions=YES
1, 2, 3, 4, 5, 6, 7, 8, 9, 10, 11
S, SF
** 
** FIELD OUTPUT: Section_P5
** 
*Element Output, elset=FRAME.P5, directions=YES
1, 2, 3, 4, 5, 6, 7, 8, 9, 10, 11
S, SF
** 
** FIELD OUTPUT: Section_P6
** 
*Element Output, elset=FRAME.P6, directions=YES
1, 2, 3, 4, 5, 6, 7
S, SF
** 
** HISTORY OUTPUT: Energy
** 
*Output, history
*Energy Output
ALLSE, ALLWK
*End Step
** ----------------------------------------------------------------
** 
** STEP: D_07S
** 
*Step, name=D_07S, nlgeom=NO
*Static
1., 1., 1e-05, 1.
** 
** LOADS
** 
** Name: D_07S_Contact_1   Type: Concentrated force
*Cload, op=NEW
CONTACT_ROW_1, 2, 0.
CONTACT_ROW_1, 3, -640.233
** Name: D_07S_Contact_2   Type: Concentrated force
*Cload, op=NEW
CONTACT_ROW_2, 2, 0.
CONTACT_ROW_2, 3, -640.233
** Name: D_07S_Contact_3   Type: Concentrated force
*Cload, op=NEW
CONTACT_ROW_3, 2, 0.
CONTACT_ROW_3, 3, -640.233
** Name: D_07S_Contact_4   Type: Concentrated force
*Cload, op=NEW
CONTACT_ROW_4, 2, 0.
CONTACT_ROW_4, 3, -640.233
** Name: D_07S_SteelGravity   Type: Gravity
*Dload, op=NEW
, GRAV, 9810., 0., 0., -1.
** Name: W_Contact_1   Type: Concentrated force
*Cload, op=NEW
** Name: W_Contact_2   Type: Concentrated force
*Cload, op=NEW
** Name: W_Contact_3   Type: Concentrated force
*Cload, op=NEW
** Name: W_Contact_4   Type: Concentrated force
*Cload, op=NEW
** 
** OUTPUT REQUESTS
** 
*Restart, write, frequency=0
** 
** FIELD OUTPUT: Nodal
** 
*Output, field, frequency=99999
*Node Output
RF, RM, U
** 
** FIELD OUTPUT: Section_P2
** 
*Element Output, elset=FRAME.P2, directions=YES
1, 2, 3, 4, 5, 6, 7, 8, 9, 10, 11
S, SF
** 
** FIELD OUTPUT: Section_P3
** 
*Element Output, elset=FRAME.P3, directions=YES
1, 2, 3, 4, 5, 6, 7, 8, 9, 10, 11
S, SF
** 
** FIELD OUTPUT: Section_P4
** 
*Element Output, elset=FRAME.P4, directions=YES
1, 2, 3, 4, 5, 6, 7, 8, 9, 10, 11
S, SF
** 
** FIELD OUTPUT: Section_P5
** 
*Element Output, elset=FRAME.P5, directions=YES
1, 2, 3, 4, 5, 6, 7, 8, 9, 10, 11
S, SF
** 
** FIELD OUTPUT: Section_P6
** 
*Element Output, elset=FRAME.P6, directions=YES
1, 2, 3, 4, 5, 6, 7
S, SF
** 
** HISTORY OUTPUT: Energy
** 
*Output, history
*Energy Output
ALLSE, ALLWK
*End Step
** ----------------------------------------------------------------
** 
** STEP: D_S
** 
*Step, name=D_S, nlgeom=NO
*Static
1., 1., 1e-05, 1.
** 
** LOADS
** 
** Name: D_07S_Contact_1   Type: Concentrated force
*Cload, op=NEW
** Name: D_07S_Contact_2   Type: Concentrated force
*Cload, op=NEW
** Name: D_07S_Contact_3   Type: Concentrated force
*Cload, op=NEW
** Name: D_07S_Contact_4   Type: Concentrated force
*Cload, op=NEW
** Name: D_07S_SteelGravity   Type: Gravity
*Dload, op=NEW
** Name: D_S_Contact_1   Type: Concentrated force
*Cload, op=NEW
CONTACT_ROW_1, 2, 0.
CONTACT_ROW_1, 3, -860.193
** Name: D_S_Contact_2   Type: Concentrated force
*Cload, op=NEW
CONTACT_ROW_2, 2, 0.
CONTACT_ROW_2, 3, -860.193
** Name: D_S_Contact_3   Type: Concentrated force
*Cload, op=NEW
CONTACT_ROW_3, 2, 0.
CONTACT_ROW_3, 3, -860.193
** Name: D_S_Contact_4   Type: Concentrated force
*Cload, op=NEW
CONTACT_ROW_4, 2, 0.
CONTACT_ROW_4, 3, -860.193
** Name: D_S_SteelGravity   Type: Gravity
*Dload, op=NEW
, GRAV, 9810., 0., 0., -1.
** 
** OUTPUT REQUESTS
** 
*Restart, write, frequency=0
** 
** FIELD OUTPUT: Nodal
** 
*Output, field, frequency=99999
*Node Output
RF, RM, U
** 
** FIELD OUTPUT: Section_P2
** 
*Element Output, elset=FRAME.P2, directions=YES
1, 2, 3, 4, 5, 6, 7, 8, 9, 10, 11
S, SF
** 
** FIELD OUTPUT: Section_P3
** 
*Element Output, elset=FRAME.P3, directions=YES
1, 2, 3, 4, 5, 6, 7, 8, 9, 10, 11
S, SF
** 
** FIELD OUTPUT: Section_P4
** 
*Element Output, elset=FRAME.P4, directions=YES
1, 2, 3, 4, 5, 6, 7, 8, 9, 10, 11
S, SF
** 
** FIELD OUTPUT: Section_P5
** 
*Element Output, elset=FRAME.P5, directions=YES
1, 2, 3, 4, 5, 6, 7, 8, 9, 10, 11
S, SF
** 
** FIELD OUTPUT: Section_P6
** 
*Element Output, elset=FRAME.P6, directions=YES
1, 2, 3, 4, 5, 6, 7
S, SF
** 
** HISTORY OUTPUT: Energy
** 
*Output, history
*Energy Output
ALLSE, ALLWK
*End Step
** ----------------------------------------------------------------
** 
** STEP: D_S_W
** 
*Step, name=D_S_W, nlgeom=NO
*Static
1., 1., 1e-05, 1.
** 
** LOADS
** 
** Name: D_S_Contact_1   Type: Concentrated force
*Cload, op=NEW
** Name: D_S_Contact_2   Type: Concentrated force
*Cload, op=NEW
** Name: D_S_Contact_3   Type: Concentrated force
*Cload, op=NEW
** Name: D_S_Contact_4   Type: Concentrated force
*Cload, op=NEW
** Name: D_S_SteelGravity   Type: Gravity
*Dload, op=NEW
** Name: D_S_W_Contact_1   Type: Concentrated force
*Cload, op=NEW
CONTACT_ROW_1, 2, 35.556
CONTACT_ROW_1, 3, -936.463
** Name: D_S_W_Contact_2   Type: Concentrated force
*Cload, op=NEW
CONTACT_ROW_2, 2, 35.556
CONTACT_ROW_2, 3, -936.463
** Name: D_S_W_Contact_3   Type: Concentrated force
*Cload, op=NEW
CONTACT_ROW_3, 2, 35.556
CONTACT_ROW_3, 3, -936.463
** Name: D_S_W_Contact_4   Type: Concentrated force
*Cload, op=NEW
CONTACT_ROW_4, 2, 35.556
CONTACT_ROW_4, 3, -936.463
** Name: D_S_W_SteelGravity   Type: Gravity
*Dload, op=NEW
, GRAV, 9810., 0., 0., -1.
** 
** OUTPUT REQUESTS
** 
*Restart, write, frequency=0
** 
** FIELD OUTPUT: Nodal
** 
*Output, field, frequency=99999
*Node Output
RF, RM, U
** 
** FIELD OUTPUT: Section_P2
** 
*Element Output, elset=FRAME.P2, directions=YES
1, 2, 3, 4, 5, 6, 7, 8, 9, 10, 11
S, SF
** 
** FIELD OUTPUT: Section_P3
** 
*Element Output, elset=FRAME.P3, directions=YES
1, 2, 3, 4, 5, 6, 7, 8, 9, 10, 11
S, SF
** 
** FIELD OUTPUT: Section_P4
** 
*Element Output, elset=FRAME.P4, directions=YES
1, 2, 3, 4, 5, 6, 7, 8, 9, 10, 11
S, SF
** 
** FIELD OUTPUT: Section_P5
** 
*Element Output, elset=FRAME.P5, directions=YES
1, 2, 3, 4, 5, 6, 7, 8, 9, 10, 11
S, SF
** 
** FIELD OUTPUT: Section_P6
** 
*Element Output, elset=FRAME.P6, directions=YES
1, 2, 3, 4, 5, 6, 7
S, SF
** 
** HISTORY OUTPUT: Energy
** 
*Output, history
*Energy Output
ALLSE, ALLWK
*End Step
** ----------------------------------------------------------------
** 
** STEP: D_S_mW
** 
*Step, name=D_S_mW, nlgeom=NO
*Static
1., 1., 1e-05, 1.
** 
** LOADS
** 
** Name: D_S_W_Contact_1   Type: Concentrated force
*Cload, op=NEW
** Name: D_S_W_Contact_2   Type: Concentrated force
*Cload, op=NEW
** Name: D_S_W_Contact_3   Type: Concentrated force
*Cload, op=NEW
** Name: D_S_W_Contact_4   Type: Concentrated force
*Cload, op=NEW
** Name: D_S_W_SteelGravity   Type: Gravity
*Dload, op=NEW
** Name: D_S_mW_Contact_1   Type: Concentrated force
*Cload, op=NEW
CONTACT_ROW_1, 2, -35.556
CONTACT_ROW_1, 3, -783.922
** Name: D_S_mW_Contact_2   Type: Concentrated force
*Cload, op=NEW
CONTACT_ROW_2, 2, -35.556
CONTACT_ROW_2, 3, -783.922
** Name: D_S_mW_Contact_3   Type: Concentrated force
*Cload, op=NEW
CONTACT_ROW_3, 2, -35.556
CONTACT_ROW_3, 3, -783.922
** Name: D_S_mW_Contact_4   Type: Concentrated force
*Cload, op=NEW
CONTACT_ROW_4, 2, -35.556
CONTACT_ROW_4, 3, -783.922
** Name: D_S_mW_SteelGravity   Type: Gravity
*Dload, op=NEW
, GRAV, 9810., 0., 0., -1.
** 
** OUTPUT REQUESTS
** 
*Restart, write, frequency=0
** 
** FIELD OUTPUT: Nodal
** 
*Output, field, frequency=99999
*Node Output
RF, RM, U
** 
** FIELD OUTPUT: Section_P2
** 
*Element Output, elset=FRAME.P2, directions=YES
1, 2, 3, 4, 5, 6, 7, 8, 9, 10, 11
S, SF
** 
** FIELD OUTPUT: Section_P3
** 
*Element Output, elset=FRAME.P3, directions=YES
1, 2, 3, 4, 5, 6, 7, 8, 9, 10, 11
S, SF
** 
** FIELD OUTPUT: Section_P4
** 
*Element Output, elset=FRAME.P4, directions=YES
1, 2, 3, 4, 5, 6, 7, 8, 9, 10, 11
S, SF
** 
** FIELD OUTPUT: Section_P5
** 
*Element Output, elset=FRAME.P5, directions=YES
1, 2, 3, 4, 5, 6, 7, 8, 9, 10, 11
S, SF
** 
** FIELD OUTPUT: Section_P6
** 
*Element Output, elset=FRAME.P6, directions=YES
1, 2, 3, 4, 5, 6, 7
S, SF
** 
** HISTORY OUTPUT: Energy
** 
*Output, history
*Energy Output
ALLSE, ALLWK
*End Step
** ----------------------------------------------------------------
** 
** STEP: C09D_W
** 
*Step, name=C09D_W, nlgeom=NO
*Static
1., 1., 1e-05, 1.
** 
** LOADS
** 
** Name: C09D_W_Contact_1   Type: Concentrated force
*Cload, op=NEW
CONTACT_ROW_1, 2, 35.556
CONTACT_ROW_1, 3, -190.564
** Name: C09D_W_Contact_2   Type: Concentrated force
*Cload, op=NEW
CONTACT_ROW_2, 2, 35.556
CONTACT_ROW_2, 3, -190.564
** Name: C09D_W_Contact_3   Type: Concentrated force
*Cload, op=NEW
CONTACT_ROW_3, 2, 35.556
CONTACT_ROW_3, 3, -190.564
** Name: C09D_W_Contact_4   Type: Concentrated force
*Cload, op=NEW
CONTACT_ROW_4, 2, 35.556
CONTACT_ROW_4, 3, -190.564
** Name: C09D_W_SteelGravity   Type: Gravity
*Dload, op=NEW
, GRAV, 8829., 0., 0., -1.
** Name: D_S_mW_Contact_1   Type: Concentrated force
*Cload, op=NEW
** Name: D_S_mW_Contact_2   Type: Concentrated force
*Cload, op=NEW
** Name: D_S_mW_Contact_3   Type: Concentrated force
*Cload, op=NEW
** Name: D_S_mW_Contact_4   Type: Concentrated force
*Cload, op=NEW
** Name: D_S_mW_SteelGravity   Type: Gravity
*Dload, op=NEW
** 
** OUTPUT REQUESTS
** 
*Restart, write, frequency=0
** 
** FIELD OUTPUT: Nodal
** 
*Output, field, frequency=99999
*Node Output
RF, RM, U
** 
** FIELD OUTPUT: Section_P2
** 
*Element Output, elset=FRAME.P2, directions=YES
1, 2, 3, 4, 5, 6, 7, 8, 9, 10, 11
S, SF
** 
** FIELD OUTPUT: Section_P3
** 
*Element Output, elset=FRAME.P3, directions=YES
1, 2, 3, 4, 5, 6, 7, 8, 9, 10, 11
S, SF
** 
** FIELD OUTPUT: Section_P4
** 
*Element Output, elset=FRAME.P4, directions=YES
1, 2, 3, 4, 5, 6, 7, 8, 9, 10, 11
S, SF
** 
** FIELD OUTPUT: Section_P5
** 
*Element Output, elset=FRAME.P5, directions=YES
1, 2, 3, 4, 5, 6, 7, 8, 9, 10, 11
S, SF
** 
** FIELD OUTPUT: Section_P6
** 
*Element Output, elset=FRAME.P6, directions=YES
1, 2, 3, 4, 5, 6, 7
S, SF
** 
** HISTORY OUTPUT: Energy
** 
*Output, history
*Energy Output
ALLSE, ALLWK
*End Step
** ----------------------------------------------------------------
** 
** STEP: C09D_mW
** 
*Step, name=C09D_mW, nlgeom=NO
*Static
1., 1., 1e-05, 1.
** 
** LOADS
** 
** Name: C09D_W_Contact_1   Type: Concentrated force
*Cload, op=NEW
** Name: C09D_W_Contact_2   Type: Concentrated force
*Cload, op=NEW
** Name: C09D_W_Contact_3   Type: Concentrated force
*Cload, op=NEW
** Name: C09D_W_Contact_4   Type: Concentrated force
*Cload, op=NEW
** Name: C09D_W_SteelGravity   Type: Gravity
*Dload, op=NEW
** Name: C09D_mW_Contact_1   Type: Concentrated force
*Cload, op=NEW
CONTACT_ROW_1, 2, -35.556
CONTACT_ROW_1, 3, -38.0225
** Name: C09D_mW_Contact_2   Type: Concentrated force
*Cload, op=NEW
CONTACT_ROW_2, 2, -35.556
CONTACT_ROW_2, 3, -38.0225
** Name: C09D_mW_Contact_3   Type: Concentrated force
*Cload, op=NEW
CONTACT_ROW_3, 2, -35.556
CONTACT_ROW_3, 3, -38.0225
** Name: C09D_mW_Contact_4   Type: Concentrated force
*Cload, op=NEW
CONTACT_ROW_4, 2, -35.556
CONTACT_ROW_4, 3, -38.0225
** Name: C09D_mW_SteelGravity   Type: Gravity
*Dload, op=NEW
, GRAV, 8829., 0., 0., -1.
** 
** OUTPUT REQUESTS
** 
*Restart, write, frequency=0
** 
** FIELD OUTPUT: Nodal
** 
*Output, field, frequency=99999
*Node Output
RF, RM, U
** 
** FIELD OUTPUT: Section_P2
** 
*Element Output, elset=FRAME.P2, directions=YES
1, 2, 3, 4, 5, 6, 7, 8, 9, 10, 11
S, SF
** 
** FIELD OUTPUT: Section_P3
** 
*Element Output, elset=FRAME.P3, directions=YES
1, 2, 3, 4, 5, 6, 7, 8, 9, 10, 11
S, SF
** 
** FIELD OUTPUT: Section_P4
** 
*Element Output, elset=FRAME.P4, directions=YES
1, 2, 3, 4, 5, 6, 7, 8, 9, 10, 11
S, SF
** 
** FIELD OUTPUT: Section_P5
** 
*Element Output, elset=FRAME.P5, directions=YES
1, 2, 3, 4, 5, 6, 7, 8, 9, 10, 11
S, SF
** 
** FIELD OUTPUT: Section_P6
** 
*Element Output, elset=FRAME.P6, directions=YES
1, 2, 3, 4, 5, 6, 7
S, SF
** 
** HISTORY OUTPUT: Energy
** 
*Output, history
*Energy Output
ALLSE, ALLWK
*End Step
