*Heading
 Solar support; see assumptions and run metadata; N mm tonne s
** Job name: Solar_011_mesh25 Model name: SolarSupport
** Generated by: Abaqus/CAE 2024
*Preprint, echo=NO, model=NO, history=NO, contact=NO
**
** PARTS
**
*Part, name=SteelFrame
*Node
      1,   17735.5449,   2433.50488,   2186.45581
      2,       18148.,   2433.50488,   2186.45581
      3,       18148.,   2888.94629,   2398.77441
      4,   16910.6367,   2433.50488,   2186.45581
      5,       18148.,   2134.36011,        2047.
      6,   16085.7275,   2433.50488,   2186.45581
      7,   15260.8184,   2433.50488,   2186.45581
      8,   14435.9092,   2433.50488,   2186.45581
      9,       13611.,   2433.50488,   2186.45581
     10,   12786.0908,   2433.50488,   2186.45581
     11,   11961.1816,   2433.50488,   2186.45581
     12,   11136.2725,   2433.50488,   2186.45581
     13,   10311.3633,   2433.50488,   2186.45581
     14,    9486.4541,   2433.50488,   2186.45581
     15,        9074.,   2433.50488,   2186.45581
     16,    8661.5459,   2433.50488,   2186.45581
     17,   7836.63623,   2433.50488,   2186.45581
     18,   7011.72705,   2433.50488,   2186.45581
     19,   6186.81836,   2433.50488,   2186.45581
     20,   5361.90918,   2433.50488,   2186.45581
     21,        4537.,   2433.50488,   2186.45581
     22,   3712.09082,   2433.50488,   2186.45581
     23,   2887.18188,   2433.50488,   2186.45581
     24,   2062.27271,   2433.50488,   2186.45581
     25,   1237.36365,   2433.50488,   2186.45581
     26,   412.454559,   2433.50488,   2186.45581
     27,           0.,   2433.50488,   2186.45581
     28,           0.,   2888.94629,   2398.77441
     29,       18148.,   1522.62158,    1761.8186
     30,       18148.,   611.738403,    1337.1814
     31,       18148.,           0.,        1052.
     32,       18148.,  -299.144806,   912.544128
     33,       18148.,  -754.586365,   700.225464
     34,       13611.,   2888.94629,   2398.77441
     35,       13611.,   2134.36011,        2047.
     36,       13611.,   1522.62158,    1761.8186
     37,       13611.,   611.738403,    1337.1814
     38,       13611.,           0.,        1052.
     39,       13611.,  -299.144806,   912.544128
     40,       13611.,  -754.586365,   700.225464
     41,        9074.,   2888.94629,   2398.77441
     42,        9074.,   2134.36011,        2047.
     43,        9074.,   1522.62158,    1761.8186
     44,        9074.,   611.738403,    1337.1814
     45,        9074.,           0.,        1052.
     46,        9074.,  -299.144806,   912.544128
     47,        9074.,  -754.586365,   700.225464
     48,        4537.,   2888.94629,   2398.77441
     49,        4537.,   2134.36011,        2047.
     50,        4537.,   1522.62158,    1761.8186
     51,        4537.,   611.738403,    1337.1814
     52,        4537.,           0.,        1052.
     53,        4537.,  -299.144806,   912.544128
     54,        4537.,  -754.586365,   700.225464
     55,           0.,   2134.36011,        2047.
     56,           0.,   1522.62158,    1761.8186
     57,           0.,   611.738403,    1337.1814
     58,           0.,           0.,        1052.
     59,           0.,  -299.144806,   912.544128
     60,           0.,  -754.586365,   700.225464
     61,       18148.,   2134.36011,   416.769989
     62,       18148.,   2134.36011,           0.
     63,   17735.5449,   1522.62158,    1761.8186
     64,   16910.6367,   1522.62158,    1761.8186
     65,   16085.7275,   1522.62158,    1761.8186
     66,   15260.8184,   1522.62158,    1761.8186
     67,   14435.9092,   1522.62158,    1761.8186
     68,   12786.0908,   1522.62158,    1761.8186
     69,   11961.1816,   1522.62158,    1761.8186
     70,   11136.2725,   1522.62158,    1761.8186
     71,   10311.3633,   1522.62158,    1761.8186
     72,    9486.4541,   1522.62158,    1761.8186
     73,    8661.5459,   1522.62158,    1761.8186
     74,   7836.63623,   1522.62158,    1761.8186
     75,   7011.72705,   1522.62158,    1761.8186
     76,   6186.81836,   1522.62158,    1761.8186
     77,   5361.90918,   1522.62158,    1761.8186
     78,   3712.09082,   1522.62158,    1761.8186
     79,   2887.18188,   1522.62158,    1761.8186
     80,   2062.27271,   1522.62158,    1761.8186
     81,   1237.36365,   1522.62158,    1761.8186
     82,   412.454559,   1522.62158,    1761.8186
     83,   17735.5449,   611.738403,    1337.1814
     84,   16910.6367,   611.738403,    1337.1814
     85,   16085.7275,   611.738403,    1337.1814
     86,   15260.8184,   611.738403,    1337.1814
     87,   14435.9092,   611.738403,    1337.1814
     88,   12786.0908,   611.738403,    1337.1814
     89,   11961.1816,   611.738403,    1337.1814
     90,   11136.2725,   611.738403,    1337.1814
     91,   10311.3633,   611.738403,    1337.1814
     92,    9486.4541,   611.738403,    1337.1814
     93,    8661.5459,   611.738403,    1337.1814
     94,   7836.63623,   611.738403,    1337.1814
     95,   7011.72705,   611.738403,    1337.1814
     96,   6186.81836,   611.738403,    1337.1814
     97,   5361.90918,   611.738403,    1337.1814
     98,   3712.09082,   611.738403,    1337.1814
     99,   2887.18188,   611.738403,    1337.1814
    100,   2062.27271,   611.738403,    1337.1814
    101,   1237.36365,   611.738403,    1337.1814
    102,   412.454559,   611.738403,    1337.1814
    103,       18148.,           0.,         927.
    104,       18148.,           0.,           0.
    105,   17735.5449,  -299.144806,   912.544128
    106,   16910.6367,  -299.144806,   912.544128
    107,   16085.7275,  -299.144806,   912.544128
    108,   15260.8184,  -299.144806,   912.544128
    109,   14435.9092,  -299.144806,   912.544128
    110,   12786.0908,  -299.144806,   912.544128
    111,   11961.1816,  -299.144806,   912.544128
    112,   11136.2725,  -299.144806,   912.544128
    113,   10311.3633,  -299.144806,   912.544128
    114,    9486.4541,  -299.144806,   912.544128
    115,    8661.5459,  -299.144806,   912.544128
    116,   7836.63623,  -299.144806,   912.544128
    117,   7011.72705,  -299.144806,   912.544128
    118,   6186.81836,  -299.144806,   912.544128
    119,   5361.90918,  -299.144806,   912.544128
    120,   3712.09082,  -299.144806,   912.544128
    121,   2887.18188,  -299.144806,   912.544128
    122,   2062.27271,  -299.144806,   912.544128
    123,   1237.36365,  -299.144806,   912.544128
    124,   412.454559,  -299.144806,   912.544128
    125,       13611.,   2134.36011,   416.769989
    126,       13611.,   2134.36011,           0.
    127,       13611.,           0.,         927.
    128,       13611.,           0.,           0.
    129,        9074.,   2134.36011,   416.769989
    130,        9074.,   2134.36011,           0.
    131,        9074.,           0.,         927.
    132,        9074.,           0.,           0.
    133,        4537.,   2134.36011,   416.769989
    134,        4537.,   2134.36011,           0.
    135,        4537.,           0.,         927.
    136,        4537.,           0.,           0.
    137,           0.,   2134.36011,   416.769989
    138,           0.,   2134.36011,           0.
    139,           0.,           0.,         927.
    140,           0.,           0.,           0.
    141,   17761.3242,   2433.50488,   2186.45581
    142,   17787.1016,   2433.50488,   2186.45581
    143,   17812.8809,   2433.50488,   2186.45581
    144,   17838.6582,   2433.50488,   2186.45581
    145,   17864.4375,   2433.50488,   2186.45581
    146,   17890.2168,   2433.50488,   2186.45581
    147,   17915.9941,   2433.50488,   2186.45581
    148,   17941.7734,   2433.50488,   2186.45581
    149,   17967.5508,   2433.50488,   2186.45581
    150,   17993.3301,   2433.50488,   2186.45581
    151,   18019.1074,   2433.50488,   2186.45581
    152,   18044.8867,   2433.50488,   2186.45581
    153,   18070.6641,   2433.50488,   2186.45581
    154,   18096.4434,   2433.50488,   2186.45581
    155,   18122.2207,   2433.50488,   2186.45581
    156,       18148.,   2456.27686,   2197.07178
    157,       18148.,   2479.04907,   2207.68774
    158,       18148.,   2501.82104,   2218.30371
    159,       18148.,   2524.59302,   2228.91968
    160,       18148.,   2547.36523,   2239.53564
    161,       18148.,   2570.13721,   2250.15137
    162,       18148.,   2592.90942,   2260.76733
    163,       18148.,    2615.6814,    2271.3833
    164,       18148.,   2638.45361,   2281.99927
    165,       18148.,   2661.22559,   2292.61523
    166,       18148.,   2683.99756,    2303.2312
    167,       18148.,   2706.76978,   2313.84717
    168,       18148.,   2729.54175,   2324.46289
    169,       18148.,   2752.31396,   2335.07886
    170,       18148.,   2775.08594,   2345.69482
    171,       18148.,   2797.85815,   2356.31079
    172,       18148.,   2820.63013,   2366.92676
    173,       18148.,   2843.40234,   2377.54272
    174,       18148.,   2866.17432,   2388.15869
    175,   16935.6328,   2433.50488,   2186.45581
    176,   16960.6309,   2433.50488,   2186.45581
    177,   16985.6289,   2433.50488,   2186.45581
    178,    17010.625,   2433.50488,   2186.45581
    179,    17035.623,   2433.50488,   2186.45581
    180,   17060.6191,   2433.50488,   2186.45581
    181,   17085.6172,   2433.50488,   2186.45581
    182,   17110.6152,   2433.50488,   2186.45581
    183,   17135.6113,   2433.50488,   2186.45581
    184,   17160.6094,   2433.50488,   2186.45581
    185,   17185.6055,   2433.50488,   2186.45581
    186,   17210.6035,   2433.50488,   2186.45581
    187,   17235.5996,   2433.50488,   2186.45581
    188,   17260.5977,   2433.50488,   2186.45581
    189,   17285.5957,   2433.50488,   2186.45581
    190,   17310.5918,   2433.50488,   2186.45581
    191,   17335.5898,   2433.50488,   2186.45581
    192,   17360.5859,   2433.50488,   2186.45581
    193,    17385.584,   2433.50488,   2186.45581
    194,    17410.582,   2433.50488,   2186.45581
    195,   17435.5781,   2433.50488,   2186.45581
    196,   17460.5762,   2433.50488,   2186.45581
    197,   17485.5723,   2433.50488,   2186.45581
    198,   17510.5703,   2433.50488,   2186.45581
    199,   17535.5684,   2433.50488,   2186.45581
    200,   17560.5645,   2433.50488,   2186.45581
    201,   17585.5625,   2433.50488,   2186.45581
    202,   17610.5586,   2433.50488,   2186.45581
    203,   17635.5566,   2433.50488,   2186.45581
    204,   17660.5547,   2433.50488,   2186.45581
    205,   17685.5508,   2433.50488,   2186.45581
    206,   17710.5488,   2433.50488,   2186.45581
    207,       18148.,   2157.37109,   2057.72729
    208,       18148.,   2180.38232,   2068.45483
    209,       18148.,   2203.39331,   2079.18213
    210,       18148.,   2226.40454,   2089.90942
    211,       18148.,   2249.41577,   2100.63696
    212,       18148.,   2272.42676,   2111.36426
    213,       18148.,   2295.43799,   2122.09155
    214,       18148.,   2318.44922,   2132.81909
    215,       18148.,   2341.46021,   2143.54639
    216,       18148.,   2364.47144,   2154.27368
    217,       18148.,   2387.48242,   2165.00122
    218,       18148.,   2410.49365,   2175.72852
    219,   16110.7246,   2433.50488,   2186.45581
    220,   16135.7217,   2433.50488,   2186.45581
    221,   16160.7188,   2433.50488,   2186.45581
    222,   16185.7158,   2433.50488,   2186.45581
    223,   16210.7139,   2433.50488,   2186.45581
    224,   16235.7109,   2433.50488,   2186.45581
    225,    16260.708,   2433.50488,   2186.45581
    226,   16285.7051,   2433.50488,   2186.45581
    227,   16310.7021,   2433.50488,   2186.45581
    228,   16335.7002,   2433.50488,   2186.45581
    229,   16360.6973,   2433.50488,   2186.45581
    230,   16385.6934,   2433.50488,   2186.45581
    231,   16410.6914,   2433.50488,   2186.45581
    232,   16435.6895,   2433.50488,   2186.45581
    233,   16460.6855,   2433.50488,   2186.45581
    234,   16485.6836,   2433.50488,   2186.45581
    235,   16510.6797,   2433.50488,   2186.45581
    236,   16535.6777,   2433.50488,   2186.45581
    237,   16560.6758,   2433.50488,   2186.45581
    238,   16585.6719,   2433.50488,   2186.45581
    239,   16610.6699,   2433.50488,   2186.45581
    240,    16635.666,   2433.50488,   2186.45581
    241,   16660.6641,   2433.50488,   2186.45581
    242,   16685.6621,   2433.50488,   2186.45581
    243,   16710.6582,   2433.50488,   2186.45581
    244,   16735.6562,   2433.50488,   2186.45581
    245,   16760.6523,   2433.50488,   2186.45581
    246,   16785.6504,   2433.50488,   2186.45581
    247,   16810.6465,   2433.50488,   2186.45581
    248,   16835.6445,   2433.50488,   2186.45581
    249,   16860.6426,   2433.50488,   2186.45581
    250,   16885.6387,   2433.50488,   2186.45581
    251,   15285.8154,   2433.50488,   2186.45581
    252,   15310.8125,   2433.50488,   2186.45581
    253,   15335.8096,   2433.50488,   2186.45581
    254,   15360.8076,   2433.50488,   2186.45581
    255,   15385.8047,   2433.50488,   2186.45581
    256,   15410.8018,   2433.50488,   2186.45581
    257,   15435.7988,   2433.50488,   2186.45581
    258,   15460.7959,   2433.50488,   2186.45581
    259,    15485.793,   2433.50488,   2186.45581
    260,    15510.791,   2433.50488,   2186.45581
    261,   15535.7881,   2433.50488,   2186.45581
    262,   15560.7852,   2433.50488,   2186.45581
    263,   15585.7822,   2433.50488,   2186.45581
    264,   15610.7793,   2433.50488,   2186.45581
    265,   15635.7773,   2433.50488,   2186.45581
    266,   15660.7744,   2433.50488,   2186.45581
    267,   15685.7715,   2433.50488,   2186.45581
    268,   15710.7686,   2433.50488,   2186.45581
    269,   15735.7656,   2433.50488,   2186.45581
    270,   15760.7627,   2433.50488,   2186.45581
    271,   15785.7607,   2433.50488,   2186.45581
    272,   15810.7578,   2433.50488,   2186.45581
    273,   15835.7549,   2433.50488,   2186.45581
    274,    15860.752,   2433.50488,   2186.45581
    275,    15885.749,   2433.50488,   2186.45581
    276,   15910.7461,   2433.50488,   2186.45581
    277,   15935.7441,   2433.50488,   2186.45581
    278,   15960.7412,   2433.50488,   2186.45581
    279,   15985.7383,   2433.50488,   2186.45581
    280,   16010.7354,   2433.50488,   2186.45581
    281,   16035.7324,   2433.50488,   2186.45581
    282,   16060.7305,   2433.50488,   2186.45581
    283,   14460.9062,   2433.50488,   2186.45581
    284,   14485.9033,   2433.50488,   2186.45581
    285,   14510.9004,   2433.50488,   2186.45581
    286,   14535.8984,   2433.50488,   2186.45581
    287,   14560.8955,   2433.50488,   2186.45581
    288,   14585.8926,   2433.50488,   2186.45581
    289,   14610.8896,   2433.50488,   2186.45581
    290,   14635.8867,   2433.50488,   2186.45581
    291,   14660.8848,   2433.50488,   2186.45581
    292,   14685.8818,   2433.50488,   2186.45581
    293,   14710.8789,   2433.50488,   2186.45581
    294,    14735.876,   2433.50488,   2186.45581
    295,    14760.873,   2433.50488,   2186.45581
    296,   14785.8701,   2433.50488,   2186.45581
    297,   14810.8682,   2433.50488,   2186.45581
    298,   14835.8652,   2433.50488,   2186.45581
    299,   14860.8623,   2433.50488,   2186.45581
    300,   14885.8594,   2433.50488,   2186.45581
    301,   14910.8564,   2433.50488,   2186.45581
    302,   14935.8535,   2433.50488,   2186.45581
    303,   14960.8516,   2433.50488,   2186.45581
    304,   14985.8486,   2433.50488,   2186.45581
    305,   15010.8457,   2433.50488,   2186.45581
    306,   15035.8428,   2433.50488,   2186.45581
    307,   15060.8398,   2433.50488,   2186.45581
    308,   15085.8379,   2433.50488,   2186.45581
    309,    15110.835,   2433.50488,   2186.45581
    310,    15135.832,   2433.50488,   2186.45581
    311,   15160.8291,   2433.50488,   2186.45581
    312,   15185.8262,   2433.50488,   2186.45581
    313,   15210.8232,   2433.50488,   2186.45581
    314,   15235.8213,   2433.50488,   2186.45581
    315,   13635.9971,   2433.50488,   2186.45581
    316,   13660.9941,   2433.50488,   2186.45581
    317,   13685.9922,   2433.50488,   2186.45581
    318,   13710.9893,   2433.50488,   2186.45581
    319,   13735.9863,   2433.50488,   2186.45581
    320,   13760.9834,   2433.50488,   2186.45581
    321,   13785.9805,   2433.50488,   2186.45581
    322,   13810.9775,   2433.50488,   2186.45581
    323,   13835.9756,   2433.50488,   2186.45581
    324,   13860.9727,   2433.50488,   2186.45581
    325,   13885.9697,   2433.50488,   2186.45581
    326,   13910.9668,   2433.50488,   2186.45581
    327,   13935.9639,   2433.50488,   2186.45581
    328,   13960.9619,   2433.50488,   2186.45581
    329,    13985.959,   2433.50488,   2186.45581
    330,   14010.9561,   2433.50488,   2186.45581
    331,   14035.9531,   2433.50488,   2186.45581
    332,   14060.9502,   2433.50488,   2186.45581
    333,   14085.9473,   2433.50488,   2186.45581
    334,   14110.9453,   2433.50488,   2186.45581
    335,   14135.9424,   2433.50488,   2186.45581
    336,   14160.9395,   2433.50488,   2186.45581
    337,   14185.9365,   2433.50488,   2186.45581
    338,   14210.9336,   2433.50488,   2186.45581
    339,   14235.9307,   2433.50488,   2186.45581
    340,   14260.9287,   2433.50488,   2186.45581
    341,   14285.9258,   2433.50488,   2186.45581
    342,   14310.9229,   2433.50488,   2186.45581
    343,   14335.9199,   2433.50488,   2186.45581
    344,    14360.917,   2433.50488,   2186.45581
    345,    14385.915,   2433.50488,   2186.45581
    346,   14410.9121,   2433.50488,   2186.45581
    347,   12811.0879,   2433.50488,   2186.45581
    348,    12836.085,   2433.50488,   2186.45581
    349,    12861.083,   2433.50488,   2186.45581
    350,   12886.0801,   2433.50488,   2186.45581
    351,   12911.0771,   2433.50488,   2186.45581
    352,   12936.0742,   2433.50488,   2186.45581
    353,   12961.0713,   2433.50488,   2186.45581
    354,   12986.0693,   2433.50488,   2186.45581
    355,   13011.0664,   2433.50488,   2186.45581
    356,   13036.0635,   2433.50488,   2186.45581
    357,   13061.0605,   2433.50488,   2186.45581
    358,   13086.0576,   2433.50488,   2186.45581
    359,   13111.0547,   2433.50488,   2186.45581
    360,   13136.0527,   2433.50488,   2186.45581
    361,   13161.0498,   2433.50488,   2186.45581
    362,   13186.0469,   2433.50488,   2186.45581
    363,   13211.0439,   2433.50488,   2186.45581
    364,    13236.041,   2433.50488,   2186.45581
    365,   13261.0381,   2433.50488,   2186.45581
    366,   13286.0361,   2433.50488,   2186.45581
    367,   13311.0332,   2433.50488,   2186.45581
    368,   13336.0303,   2433.50488,   2186.45581
    369,   13361.0273,   2433.50488,   2186.45581
    370,   13386.0244,   2433.50488,   2186.45581
    371,   13411.0225,   2433.50488,   2186.45581
    372,   13436.0195,   2433.50488,   2186.45581
    373,   13461.0166,   2433.50488,   2186.45581
    374,   13486.0137,   2433.50488,   2186.45581
    375,   13511.0107,   2433.50488,   2186.45581
    376,   13536.0078,   2433.50488,   2186.45581
    377,   13561.0059,   2433.50488,   2186.45581
    378,   13586.0029,   2433.50488,   2186.45581
    379,   11986.1787,   2433.50488,   2186.45581
    380,   12011.1768,   2433.50488,   2186.45581
    381,   12036.1738,   2433.50488,   2186.45581
    382,   12061.1709,   2433.50488,   2186.45581
    383,    12086.168,   2433.50488,   2186.45581
    384,    12111.165,   2433.50488,   2186.45581
    385,   12136.1621,   2433.50488,   2186.45581
    386,   12161.1602,   2433.50488,   2186.45581
    387,   12186.1572,   2433.50488,   2186.45581
    388,   12211.1543,   2433.50488,   2186.45581
    389,   12236.1514,   2433.50488,   2186.45581
    390,   12261.1484,   2433.50488,   2186.45581
    391,   12286.1465,   2433.50488,   2186.45581
    392,   12311.1436,   2433.50488,   2186.45581
    393,   12336.1406,   2433.50488,   2186.45581
    394,   12361.1377,   2433.50488,   2186.45581
    395,   12386.1348,   2433.50488,   2186.45581
    396,   12411.1318,   2433.50488,   2186.45581
    397,   12436.1299,   2433.50488,   2186.45581
    398,    12461.127,   2433.50488,   2186.45581
    399,    12486.124,   2433.50488,   2186.45581
    400,   12511.1211,   2433.50488,   2186.45581
    401,   12536.1182,   2433.50488,   2186.45581
    402,   12561.1152,   2433.50488,   2186.45581
    403,   12586.1133,   2433.50488,   2186.45581
    404,   12611.1104,   2433.50488,   2186.45581
    405,   12636.1074,   2433.50488,   2186.45581
    406,   12661.1045,   2433.50488,   2186.45581
    407,   12686.1016,   2433.50488,   2186.45581
    408,   12711.0996,   2433.50488,   2186.45581
    409,   12736.0967,   2433.50488,   2186.45581
    410,   12761.0938,   2433.50488,   2186.45581
    411,   11161.2695,   2433.50488,   2186.45581
    412,   11186.2676,   2433.50488,   2186.45581
    413,   11211.2646,   2433.50488,   2186.45581
    414,   11236.2617,   2433.50488,   2186.45581
    415,   11261.2588,   2433.50488,   2186.45581
    416,   11286.2559,   2433.50488,   2186.45581
    417,   11311.2539,   2433.50488,   2186.45581
    418,    11336.251,   2433.50488,   2186.45581
    419,    11361.248,   2433.50488,   2186.45581
    420,   11386.2451,   2433.50488,   2186.45581
    421,   11411.2422,   2433.50488,   2186.45581
    422,   11436.2393,   2433.50488,   2186.45581
    423,   11461.2373,   2433.50488,   2186.45581
    424,   11486.2344,   2433.50488,   2186.45581
    425,   11511.2314,   2433.50488,   2186.45581
    426,   11536.2285,   2433.50488,   2186.45581
    427,   11561.2256,   2433.50488,   2186.45581
    428,   11586.2227,   2433.50488,   2186.45581
    429,   11611.2207,   2433.50488,   2186.45581
    430,   11636.2178,   2433.50488,   2186.45581
    431,   11661.2148,   2433.50488,   2186.45581
    432,   11686.2119,   2433.50488,   2186.45581
    433,    11711.209,   2433.50488,   2186.45581
    434,    11736.207,   2433.50488,   2186.45581
    435,   11761.2041,   2433.50488,   2186.45581
    436,   11786.2012,   2433.50488,   2186.45581
    437,   11811.1982,   2433.50488,   2186.45581
    438,   11836.1953,   2433.50488,   2186.45581
    439,   11861.1924,   2433.50488,   2186.45581
    440,   11886.1904,   2433.50488,   2186.45581
    441,   11911.1875,   2433.50488,   2186.45581
    442,   11936.1846,   2433.50488,   2186.45581
    443,   10336.3613,   2433.50488,   2186.45581
    444,   10361.3584,   2433.50488,   2186.45581
    445,   10386.3555,   2433.50488,   2186.45581
    446,   10411.3525,   2433.50488,   2186.45581
    447,   10436.3496,   2433.50488,   2186.45581
    448,   10461.3467,   2433.50488,   2186.45581
    449,   10486.3447,   2433.50488,   2186.45581
    450,   10511.3418,   2433.50488,   2186.45581
    451,   10536.3389,   2433.50488,   2186.45581
    452,   10561.3359,   2433.50488,   2186.45581
    453,    10586.333,   2433.50488,   2186.45581
    454,   10611.3311,   2433.50488,   2186.45581
    455,   10636.3281,   2433.50488,   2186.45581
    456,   10661.3252,   2433.50488,   2186.45581
    457,   10686.3223,   2433.50488,   2186.45581
    458,   10711.3193,   2433.50488,   2186.45581
    459,   10736.3164,   2433.50488,   2186.45581
    460,   10761.3145,   2433.50488,   2186.45581
    461,   10786.3115,   2433.50488,   2186.45581
    462,   10811.3086,   2433.50488,   2186.45581
    463,   10836.3057,   2433.50488,   2186.45581
    464,   10861.3027,   2433.50488,   2186.45581
    465,   10886.2998,   2433.50488,   2186.45581
    466,   10911.2979,   2433.50488,   2186.45581
    467,   10936.2949,   2433.50488,   2186.45581
    468,    10961.292,   2433.50488,   2186.45581
    469,   10986.2891,   2433.50488,   2186.45581
    470,   11011.2861,   2433.50488,   2186.45581
    471,   11036.2842,   2433.50488,   2186.45581
    472,   11061.2812,   2433.50488,   2186.45581
    473,   11086.2783,   2433.50488,   2186.45581
    474,   11111.2754,   2433.50488,   2186.45581
    475,   9511.45215,   2433.50488,   2186.45581
    476,   9536.44922,   2433.50488,   2186.45581
    477,   9561.44629,   2433.50488,   2186.45581
    478,   9586.44336,   2433.50488,   2186.45581
    479,   9611.44043,   2433.50488,   2186.45581
    480,   9636.43848,   2433.50488,   2186.45581
    481,   9661.43555,   2433.50488,   2186.45581
    482,   9686.43262,   2433.50488,   2186.45581
    483,   9711.42969,   2433.50488,   2186.45581
    484,   9736.42676,   2433.50488,   2186.45581
    485,   9761.42383,   2433.50488,   2186.45581
    486,   9786.42188,   2433.50488,   2186.45581
    487,   9811.41895,   2433.50488,   2186.45581
    488,   9836.41602,   2433.50488,   2186.45581
    489,   9861.41309,   2433.50488,   2186.45581
    490,   9886.41016,   2433.50488,   2186.45581
    491,   9911.40723,   2433.50488,   2186.45581
    492,   9936.40527,   2433.50488,   2186.45581
    493,   9961.40234,   2433.50488,   2186.45581
    494,   9986.39941,   2433.50488,   2186.45581
    495,   10011.3965,   2433.50488,   2186.45581
    496,   10036.3936,   2433.50488,   2186.45581
    497,   10061.3916,   2433.50488,   2186.45581
    498,   10086.3887,   2433.50488,   2186.45581
    499,   10111.3857,   2433.50488,   2186.45581
    500,   10136.3828,   2433.50488,   2186.45581
    501,   10161.3799,   2433.50488,   2186.45581
    502,    10186.377,   2433.50488,   2186.45581
    503,    10211.375,   2433.50488,   2186.45581
    504,   10236.3721,   2433.50488,   2186.45581
    505,   10261.3691,   2433.50488,   2186.45581
    506,   10286.3662,   2433.50488,   2186.45581
    507,   9099.77832,   2433.50488,   2186.45581
    508,   9125.55664,   2433.50488,   2186.45581
    509,   9151.33496,   2433.50488,   2186.45581
    510,   9177.11328,   2433.50488,   2186.45581
    511,    9202.8916,   2433.50488,   2186.45581
    512,    9228.6709,   2433.50488,   2186.45581
    513,   9254.44922,   2433.50488,   2186.45581
    514,   9280.22754,   2433.50488,   2186.45581
    515,   9306.00586,   2433.50488,   2186.45581
    516,   9331.78418,   2433.50488,   2186.45581
    517,    9357.5625,   2433.50488,   2186.45581
    518,   9383.34082,   2433.50488,   2186.45581
    519,   9409.11914,   2433.50488,   2186.45581
    520,   9434.89746,   2433.50488,   2186.45581
    521,   9460.67578,   2433.50488,   2186.45581
    522,   8687.32422,   2433.50488,   2186.45581
    523,   8713.10254,   2433.50488,   2186.45581
    524,   8738.88086,   2433.50488,   2186.45581
    525,   8764.65918,   2433.50488,   2186.45581
    526,    8790.4375,   2433.50488,   2186.45581
    527,   8816.21582,   2433.50488,   2186.45581
    528,   8841.99414,   2433.50488,   2186.45581
    529,   8867.77246,   2433.50488,   2186.45581
    530,   8893.55078,   2433.50488,   2186.45581
    531,    8919.3291,   2433.50488,   2186.45581
    532,    8945.1084,   2433.50488,   2186.45581
    533,   8970.88672,   2433.50488,   2186.45581
    534,   8996.66504,   2433.50488,   2186.45581
    535,   9022.44336,   2433.50488,   2186.45581
    536,   9048.22168,   2433.50488,   2186.45581
    537,   7861.63379,   2433.50488,   2186.45581
    538,   7886.63086,   2433.50488,   2186.45581
    539,   7911.62793,   2433.50488,   2186.45581
    540,   7936.62549,   2433.50488,   2186.45581
    541,   7961.62256,   2433.50488,   2186.45581
    542,   7986.61963,   2433.50488,   2186.45581
    543,   8011.61719,   2433.50488,   2186.45581
    544,   8036.61426,   2433.50488,   2186.45581
    545,   8061.61133,   2433.50488,   2186.45581
    546,   8086.60889,   2433.50488,   2186.45581
    547,   8111.60596,   2433.50488,   2186.45581
    548,   8136.60352,   2433.50488,   2186.45581
    549,   8161.60059,   2433.50488,   2186.45581
    550,   8186.59766,   2433.50488,   2186.45581
    551,   8211.59473,   2433.50488,   2186.45581
    552,   8236.59277,   2433.50488,   2186.45581
    553,   8261.58984,   2433.50488,   2186.45581
    554,   8286.58691,   2433.50488,   2186.45581
    555,   8311.58398,   2433.50488,   2186.45581
    556,   8336.58105,   2433.50488,   2186.45581
    557,   8361.57812,   2433.50488,   2186.45581
    558,   8386.57617,   2433.50488,   2186.45581
    559,   8411.57324,   2433.50488,   2186.45581
    560,   8436.57031,   2433.50488,   2186.45581
    561,   8461.56738,   2433.50488,   2186.45581
    562,   8486.56445,   2433.50488,   2186.45581
    563,   8511.56152,   2433.50488,   2186.45581
    564,   8536.55957,   2433.50488,   2186.45581
    565,   8561.55664,   2433.50488,   2186.45581
    566,   8586.55371,   2433.50488,   2186.45581
    567,   8611.55078,   2433.50488,   2186.45581
    568,   8636.54785,   2433.50488,   2186.45581
    569,   7036.72461,   2433.50488,   2186.45581
    570,   7061.72168,   2433.50488,   2186.45581
    571,   7086.71924,   2433.50488,   2186.45581
    572,   7111.71631,   2433.50488,   2186.45581
    573,   7136.71338,   2433.50488,   2186.45581
    574,   7161.71094,   2433.50488,   2186.45581
    575,   7186.70801,   2433.50488,   2186.45581
    576,   7211.70508,   2433.50488,   2186.45581
    577,   7236.70264,   2433.50488,   2186.45581
    578,   7261.69971,   2433.50488,   2186.45581
    579,   7286.69678,   2433.50488,   2186.45581
    580,   7311.69434,   2433.50488,   2186.45581
    581,   7336.69141,   2433.50488,   2186.45581
    582,   7361.68848,   2433.50488,   2186.45581
    583,   7386.68604,   2433.50488,   2186.45581
    584,   7411.68311,   2433.50488,   2186.45581
    585,   7436.68066,   2433.50488,   2186.45581
    586,   7461.67773,   2433.50488,   2186.45581
    587,    7486.6748,   2433.50488,   2186.45581
    588,   7511.67236,   2433.50488,   2186.45581
    589,   7536.66943,   2433.50488,   2186.45581
    590,    7561.6665,   2433.50488,   2186.45581
    591,   7586.66406,   2433.50488,   2186.45581
    592,   7611.66113,   2433.50488,   2186.45581
    593,    7636.6582,   2433.50488,   2186.45581
    594,   7661.65576,   2433.50488,   2186.45581
    595,   7686.65283,   2433.50488,   2186.45581
    596,    7711.6499,   2433.50488,   2186.45581
    597,   7736.64746,   2433.50488,   2186.45581
    598,   7761.64453,   2433.50488,   2186.45581
    599,   7786.64209,   2433.50488,   2186.45581
    600,   7811.63916,   2433.50488,   2186.45581
    601,   6211.81543,   2433.50488,   2186.45581
    602,    6236.8125,   2433.50488,   2186.45581
    603,   6261.81006,   2433.50488,   2186.45581
    604,   6286.80713,   2433.50488,   2186.45581
    605,    6311.8042,   2433.50488,   2186.45581
    606,   6336.80176,   2433.50488,   2186.45581
    607,   6361.79883,   2433.50488,   2186.45581
    608,   6386.79639,   2433.50488,   2186.45581
    609,   6411.79346,   2433.50488,   2186.45581
    610,   6436.79053,   2433.50488,   2186.45581
    611,   6461.78809,   2433.50488,   2186.45581
    612,   6486.78516,   2433.50488,   2186.45581
    613,   6511.78223,   2433.50488,   2186.45581
    614,   6536.77979,   2433.50488,   2186.45581
    615,   6561.77686,   2433.50488,   2186.45581
    616,   6586.77393,   2433.50488,   2186.45581
    617,   6611.77148,   2433.50488,   2186.45581
    618,   6636.76855,   2433.50488,   2186.45581
    619,   6661.76562,   2433.50488,   2186.45581
    620,   6686.76318,   2433.50488,   2186.45581
    621,   6711.76025,   2433.50488,   2186.45581
    622,   6736.75781,   2433.50488,   2186.45581
    623,   6761.75488,   2433.50488,   2186.45581
    624,   6786.75195,   2433.50488,   2186.45581
    625,   6811.74951,   2433.50488,   2186.45581
    626,   6836.74658,   2433.50488,   2186.45581
    627,   6861.74365,   2433.50488,   2186.45581
    628,   6886.74121,   2433.50488,   2186.45581
    629,   6911.73828,   2433.50488,   2186.45581
    630,   6936.73535,   2433.50488,   2186.45581
    631,   6961.73291,   2433.50488,   2186.45581
    632,   6986.72998,   2433.50488,   2186.45581
    633,   5386.90625,   2433.50488,   2186.45581
    634,   5411.90381,   2433.50488,   2186.45581
    635,   5436.90088,   2433.50488,   2186.45581
    636,   5461.89795,   2433.50488,   2186.45581
    637,   5486.89551,   2433.50488,   2186.45581
    638,   5511.89258,   2433.50488,   2186.45581
    639,   5536.88965,   2433.50488,   2186.45581
    640,   5561.88721,   2433.50488,   2186.45581
    641,   5586.88428,   2433.50488,   2186.45581
    642,   5611.88135,   2433.50488,   2186.45581
    643,   5636.87891,   2433.50488,   2186.45581
    644,   5661.87598,   2433.50488,   2186.45581
    645,   5686.87305,   2433.50488,   2186.45581
    646,   5711.87061,   2433.50488,   2186.45581
    647,   5736.86768,   2433.50488,   2186.45581
    648,   5761.86523,   2433.50488,   2186.45581
    649,    5786.8623,   2433.50488,   2186.45581
    650,   5811.85938,   2433.50488,   2186.45581
    651,   5836.85693,   2433.50488,   2186.45581
    652,     5861.854,   2433.50488,   2186.45581
    653,   5886.85107,   2433.50488,   2186.45581
    654,   5911.84863,   2433.50488,   2186.45581
    655,    5936.8457,   2433.50488,   2186.45581
    656,   5961.84277,   2433.50488,   2186.45581
    657,   5986.84033,   2433.50488,   2186.45581
    658,    6011.8374,   2433.50488,   2186.45581
    659,   6036.83447,   2433.50488,   2186.45581
    660,   6061.83203,   2433.50488,   2186.45581
    661,    6086.8291,   2433.50488,   2186.45581
    662,   6111.82666,   2433.50488,   2186.45581
    663,   6136.82373,   2433.50488,   2186.45581
    664,    6161.8208,   2433.50488,   2186.45581
    665,   4561.99707,   2433.50488,   2186.45581
    666,   4586.99463,   2433.50488,   2186.45581
    667,    4611.9917,   2433.50488,   2186.45581
    668,   4636.98877,   2433.50488,   2186.45581
    669,   4661.98633,   2433.50488,   2186.45581
    670,    4686.9834,   2433.50488,   2186.45581
    671,   4711.98096,   2433.50488,   2186.45581
    672,   4736.97803,   2433.50488,   2186.45581
    673,    4761.9751,   2433.50488,   2186.45581
    674,   4786.97266,   2433.50488,   2186.45581
    675,   4811.96973,   2433.50488,   2186.45581
    676,    4836.9668,   2433.50488,   2186.45581
    677,   4861.96436,   2433.50488,   2186.45581
    678,   4886.96143,   2433.50488,   2186.45581
    679,    4911.9585,   2433.50488,   2186.45581
    680,   4936.95605,   2433.50488,   2186.45581
    681,   4961.95312,   2433.50488,   2186.45581
    682,    4986.9502,   2433.50488,   2186.45581
    683,   5011.94775,   2433.50488,   2186.45581
    684,   5036.94482,   2433.50488,   2186.45581
    685,   5061.94238,   2433.50488,   2186.45581
    686,   5086.93945,   2433.50488,   2186.45581
    687,   5111.93652,   2433.50488,   2186.45581
    688,   5136.93408,   2433.50488,   2186.45581
    689,   5161.93115,   2433.50488,   2186.45581
    690,   5186.92822,   2433.50488,   2186.45581
    691,   5211.92578,   2433.50488,   2186.45581
    692,   5236.92285,   2433.50488,   2186.45581
    693,   5261.91992,   2433.50488,   2186.45581
    694,   5286.91748,   2433.50488,   2186.45581
    695,   5311.91455,   2433.50488,   2186.45581
    696,   5336.91162,   2433.50488,   2186.45581
    697,   3737.08813,   2433.50488,   2186.45581
    698,   3762.08545,   2433.50488,   2186.45581
    699,   3787.08276,   2433.50488,   2186.45581
    700,   3812.07983,   2433.50488,   2186.45581
    701,   3837.07715,   2433.50488,   2186.45581
    702,   3862.07446,   2433.50488,   2186.45581
    703,   3887.07153,   2433.50488,   2186.45581
    704,   3912.06885,   2433.50488,   2186.45581
    705,   3937.06616,   2433.50488,   2186.45581
    706,   3962.06348,   2433.50488,   2186.45581
    707,   3987.06055,   2433.50488,   2186.45581
    708,   4012.05786,   2433.50488,   2186.45581
    709,   4037.05518,   2433.50488,   2186.45581
    710,   4062.05225,   2433.50488,   2186.45581
    711,   4087.04956,   2433.50488,   2186.45581
    712,   4112.04688,   2433.50488,   2186.45581
    713,   4137.04395,   2433.50488,   2186.45581
    714,    4162.0415,   2433.50488,   2186.45581
    715,   4187.03857,   2433.50488,   2186.45581
    716,   4212.03564,   2433.50488,   2186.45581
    717,    4237.0332,   2433.50488,   2186.45581
    718,   4262.03027,   2433.50488,   2186.45581
    719,   4287.02734,   2433.50488,   2186.45581
    720,    4312.0249,   2433.50488,   2186.45581
    721,   4337.02197,   2433.50488,   2186.45581
    722,   4362.01904,   2433.50488,   2186.45581
    723,    4387.0166,   2433.50488,   2186.45581
    724,   4412.01367,   2433.50488,   2186.45581
    725,   4437.01123,   2433.50488,   2186.45581
    726,    4462.0083,   2433.50488,   2186.45581
    727,   4487.00537,   2433.50488,   2186.45581
    728,   4512.00293,   2433.50488,   2186.45581
    729,   2912.17896,   2433.50488,   2186.45581
    730,   2937.17627,   2433.50488,   2186.45581
    731,   2962.17358,   2433.50488,   2186.45581
    732,    2987.1709,   2433.50488,   2186.45581
    733,   3012.16797,   2433.50488,   2186.45581
    734,   3037.16528,   2433.50488,   2186.45581
    735,    3062.1626,   2433.50488,   2186.45581
    736,   3087.15967,   2433.50488,   2186.45581
    737,   3112.15698,   2433.50488,   2186.45581
    738,    3137.1543,   2433.50488,   2186.45581
    739,   3162.15161,   2433.50488,   2186.45581
    740,   3187.14868,   2433.50488,   2186.45581
    741,     3212.146,   2433.50488,   2186.45581
    742,   3237.14331,   2433.50488,   2186.45581
    743,   3262.14038,   2433.50488,   2186.45581
    744,    3287.1377,   2433.50488,   2186.45581
    745,   3312.13501,   2433.50488,   2186.45581
    746,   3337.13232,   2433.50488,   2186.45581
    747,   3362.12939,   2433.50488,   2186.45581
    748,   3387.12671,   2433.50488,   2186.45581
    749,   3412.12402,   2433.50488,   2186.45581
    750,   3437.12109,   2433.50488,   2186.45581
    751,   3462.11841,   2433.50488,   2186.45581
    752,   3487.11572,   2433.50488,   2186.45581
    753,   3512.11304,   2433.50488,   2186.45581
    754,   3537.11011,   2433.50488,   2186.45581
    755,   3562.10742,   2433.50488,   2186.45581
    756,   3587.10474,   2433.50488,   2186.45581
    757,   3612.10181,   2433.50488,   2186.45581
    758,   3637.09912,   2433.50488,   2186.45581
    759,   3662.09644,   2433.50488,   2186.45581
    760,   3687.09375,   2433.50488,   2186.45581
    761,   2087.27002,   2433.50488,   2186.45581
    762,   2112.26733,   2433.50488,   2186.45581
    763,    2137.2644,   2433.50488,   2186.45581
    764,   2162.26172,   2433.50488,   2186.45581
    765,   2187.25903,   2433.50488,   2186.45581
    766,    2212.2561,   2433.50488,   2186.45581
    767,   2237.25342,   2433.50488,   2186.45581
    768,   2262.25073,   2433.50488,   2186.45581
    769,   2287.24805,   2433.50488,   2186.45581
    770,   2312.24512,   2433.50488,   2186.45581
    771,   2337.24243,   2433.50488,   2186.45581
    772,   2362.23975,   2433.50488,   2186.45581
    773,   2387.23682,   2433.50488,   2186.45581
    774,   2412.23413,   2433.50488,   2186.45581
    775,   2437.23145,   2433.50488,   2186.45581
    776,   2462.22876,   2433.50488,   2186.45581
    777,   2487.22583,   2433.50488,   2186.45581
    778,   2512.22314,   2433.50488,   2186.45581
    779,   2537.22046,   2433.50488,   2186.45581
    780,   2562.21753,   2433.50488,   2186.45581
    781,   2587.21484,   2433.50488,   2186.45581
    782,   2612.21216,   2433.50488,   2186.45581
    783,   2637.20947,   2433.50488,   2186.45581
    784,   2662.20654,   2433.50488,   2186.45581
    785,   2687.20386,   2433.50488,   2186.45581
    786,   2712.20117,   2433.50488,   2186.45581
    787,   2737.19824,   2433.50488,   2186.45581
    788,   2762.19556,   2433.50488,   2186.45581
    789,   2787.19287,   2433.50488,   2186.45581
    790,   2812.19019,   2433.50488,   2186.45581
    791,   2837.18726,   2433.50488,   2186.45581
    792,   2862.18457,   2433.50488,   2186.45581
    793,   1262.36084,   2433.50488,   2186.45581
    794,   1287.35815,   2433.50488,   2186.45581
    795,   1312.35535,   2433.50488,   2186.45581
    796,   1337.35266,   2433.50488,   2186.45581
    797,   1362.34985,   2433.50488,   2186.45581
    798,   1387.34717,   2433.50488,   2186.45581
    799,   1412.34436,   2433.50488,   2186.45581
    800,   1437.34155,   2433.50488,   2186.45581
    801,   1462.33887,   2433.50488,   2186.45581
    802,   1487.33606,   2433.50488,   2186.45581
    803,   1512.33337,   2433.50488,   2186.45581
    804,   1537.33057,   2433.50488,   2186.45581
    805,   1562.32788,   2433.50488,   2186.45581
    806,   1587.32507,   2433.50488,   2186.45581
    807,   1612.32227,   2433.50488,   2186.45581
    808,   1637.31958,   2433.50488,   2186.45581
    809,   1662.31677,   2433.50488,   2186.45581
    810,   1687.31409,   2433.50488,   2186.45581
    811,   1712.31128,   2433.50488,   2186.45581
    812,   1737.30859,   2433.50488,   2186.45581
    813,   1762.30579,   2433.50488,   2186.45581
    814,   1787.30298,   2433.50488,   2186.45581
    815,   1812.30029,   2433.50488,   2186.45581
    816,   1837.29749,   2433.50488,   2186.45581
    817,    1862.2948,   2433.50488,   2186.45581
    818,   1887.29199,   2433.50488,   2186.45581
    819,   1912.28931,   2433.50488,   2186.45581
    820,    1937.2865,   2433.50488,   2186.45581
    821,   1962.28369,   2433.50488,   2186.45581
    822,   1987.28101,   2433.50488,   2186.45581
    823,    2012.2782,   2433.50488,   2186.45581
    824,   2037.27551,   2433.50488,   2186.45581
    825,   437.451782,   2433.50488,   2186.45581
    826,   462.449036,   2433.50488,   2186.45581
    827,   487.446289,   2433.50488,   2186.45581
    828,   512.443542,   2433.50488,   2186.45581
    829,   537.440796,   2433.50488,   2186.45581
    830,   562.437988,   2433.50488,   2186.45581
    831,   587.435242,   2433.50488,   2186.45581
    832,   612.432495,   2433.50488,   2186.45581
    833,   637.429749,   2433.50488,   2186.45581
    834,   662.427002,   2433.50488,   2186.45581
    835,   687.424255,   2433.50488,   2186.45581
    836,   712.421509,   2433.50488,   2186.45581
    837,   737.418762,   2433.50488,   2186.45581
    838,   762.415955,   2433.50488,   2186.45581
    839,   787.413208,   2433.50488,   2186.45581
    840,   812.410461,   2433.50488,   2186.45581
    841,   837.407715,   2433.50488,   2186.45581
    842,   862.404968,   2433.50488,   2186.45581
    843,   887.402222,   2433.50488,   2186.45581
    844,   912.399475,   2433.50488,   2186.45581
    845,   937.396667,   2433.50488,   2186.45581
    846,   962.393921,   2433.50488,   2186.45581
    847,   987.391174,   2433.50488,   2186.45581
    848,   1012.38843,   2433.50488,   2186.45581
    849,   1037.38562,   2433.50488,   2186.45581
    850,   1062.38293,   2433.50488,   2186.45581
    851,   1087.38013,   2433.50488,   2186.45581
    852,   1112.37744,   2433.50488,   2186.45581
    853,   1137.37463,   2433.50488,   2186.45581
    854,   1162.37195,   2433.50488,   2186.45581
    855,   1187.36914,   2433.50488,   2186.45581
    856,   1212.36633,   2433.50488,   2186.45581
    857,     25.77841,   2433.50488,   2186.45581
    858,   51.5568199,   2433.50488,   2186.45581
    859,    77.335228,   2433.50488,   2186.45581
    860,    103.11364,   2433.50488,   2186.45581
    861,   128.892044,   2433.50488,   2186.45581
    862,   154.670456,   2433.50488,   2186.45581
    863,   180.448868,   2433.50488,   2186.45581
    864,    206.22728,   2433.50488,   2186.45581
    865,   232.005676,   2433.50488,   2186.45581
    866,   257.784088,   2433.50488,   2186.45581
    867,     283.5625,   2433.50488,   2186.45581
    868,   309.340912,   2433.50488,   2186.45581
    869,   335.119324,   2433.50488,   2186.45581
    870,   360.897736,   2433.50488,   2186.45581
    871,   386.676147,   2433.50488,   2186.45581
    872,           0.,   2456.27686,   2197.07178
    873,           0.,   2479.04907,   2207.68774
    874,           0.,   2501.82104,   2218.30371
    875,           0.,   2524.59302,   2228.91968
    876,           0.,   2547.36523,   2239.53564
    877,           0.,   2570.13721,   2250.15137
    878,           0.,   2592.90942,   2260.76733
    879,           0.,    2615.6814,    2271.3833
    880,           0.,   2638.45361,   2281.99927
    881,           0.,   2661.22559,   2292.61523
    882,           0.,   2683.99756,    2303.2312
    883,           0.,   2706.76978,   2313.84717
    884,           0.,   2729.54175,   2324.46289
    885,           0.,   2752.31396,   2335.07886
    886,           0.,   2775.08594,   2345.69482
    887,           0.,   2797.85815,   2356.31079
    888,           0.,   2820.63013,   2366.92676
    889,           0.,   2843.40234,   2377.54272
    890,           0.,   2866.17432,   2388.15869
    891,       18148.,   1545.27856,   1772.38086
    892,       18148.,   1567.93555,   1782.94312
    893,       18148.,   1590.59253,   1793.50549
    894,       18148.,   1613.24951,   1804.06775
    895,       18148.,   1635.90649,      1814.63
    896,       18148.,   1658.56348,   1825.19226
    897,       18148.,   1681.22046,   1835.75452
    898,       18148.,   1703.87744,   1846.31677
    899,       18148.,   1726.53442,   1856.87903
    900,       18148.,   1749.19141,   1867.44141
    901,       18148.,   1771.84839,   1878.00366
    902,       18148.,   1794.50537,   1888.56592
    903,       18148.,   1817.16235,   1899.12817
    904,       18148.,   1839.81934,   1909.69043
    905,       18148.,   1862.47632,   1920.25269
    906,       18148.,    1885.1333,   1930.81494
    907,       18148.,   1907.79016,   1941.37732
    908,       18148.,   1930.44714,   1951.93958
    909,       18148.,   1953.10413,   1962.50183
    910,       18148.,   1975.76111,   1973.06409
    911,       18148.,   1998.41809,   1983.62634
    912,       18148.,   2021.07507,    1994.1886
    913,       18148.,   2043.73206,   2004.75085
    914,       18148.,   2066.38916,   2015.31323
    915,       18148.,   2089.04614,   2025.87549
    916,       18148.,   2111.70312,   2036.43774
    917,       18148.,   634.510498,   1347.79724
    918,       18148.,   657.282532,   1358.41321
    919,       18148.,   680.054626,   1369.02917
    920,       18148.,   702.826721,   1379.64514
    921,       18148.,   725.598816,   1390.26099
    922,       18148.,   748.370911,   1400.87695
    923,       18148.,   771.142944,   1411.49292
    924,       18148.,   793.915039,   1422.10876
    925,       18148.,   816.687134,   1432.72473
    926,       18148.,   839.459229,    1443.3407
    927,       18148.,   862.231262,   1453.95667
    928,       18148.,   885.003357,   1464.57251
    929,       18148.,   907.775452,   1475.18848
    930,       18148.,   930.547546,   1485.80444
    931,       18148.,    953.31958,   1496.42029
    932,       18148.,   976.091675,   1507.03625
    933,       18148.,    998.86377,   1517.65222
    934,       18148.,   1021.63586,   1528.26819
    935,       18148.,   1044.40796,   1538.88403
    936,       18148.,   1067.18005,       1549.5
    937,       18148.,   1089.95203,   1560.11597
    938,       18148.,   1112.72412,   1570.73181
    939,       18148.,   1135.49622,   1581.34778
    940,       18148.,   1158.26831,   1591.96375
    941,       18148.,   1181.04041,   1602.57971
    942,       18148.,    1203.8125,   1613.19556
    943,       18148.,   1226.58459,   1623.81152
    944,       18148.,   1249.35669,   1634.42749
    945,       18148.,   1272.12866,   1645.04333
    946,       18148.,   1294.90076,    1655.6593
    947,       18148.,   1317.67285,   1666.27527
    948,       18148.,   1340.44495,   1676.89124
    949,       18148.,   1363.21704,   1687.50708
    950,       18148.,   1385.98914,   1698.12305
    951,       18148.,   1408.76123,   1708.73901
    952,       18148.,   1431.53333,   1719.35486
    953,       18148.,    1454.3053,   1729.97083
    954,       18148.,   1477.07739,   1740.58679
    955,       18148.,   1499.84949,   1751.20276
    956,       18148.,   22.6569786,   1062.56226
    957,       18148.,   45.3139572,   1073.12451
    958,       18148.,    67.970932,   1083.68677
    959,       18148.,   90.6279144,   1094.24915
    960,       18148.,   113.284889,    1104.8114
    961,       18148.,   135.941864,   1115.37366
    962,       18148.,   158.598846,   1125.93591
    963,       18148.,   181.255829,   1136.49817
    964,       18148.,   203.912796,   1147.06042
    965,       18148.,   226.569778,   1157.62268
    966,       18148.,   249.226761,   1168.18506
    967,       18148.,   271.883728,   1178.74731
    968,       18148.,    294.54071,   1189.30957
    969,       18148.,   317.197693,   1199.87183
    970,       18148.,   339.854675,   1210.43408
    971,       18148.,   362.511658,   1220.99634
    972,       18148.,    385.16861,   1231.55859
    973,       18148.,   407.825592,   1242.12097
    974,       18148.,   430.482574,   1252.68323
    975,       18148.,   453.139557,   1263.24548
    976,       18148.,   475.796539,   1273.80774
    977,       18148.,   498.453522,      1284.37
    978,       18148.,   521.110474,   1294.93225
    979,       18148.,   543.767456,   1305.49451
    980,       18148.,   566.424438,   1316.05688
    981,       18148.,   589.081421,   1326.61914
    982,       18148.,  -276.133667,   923.271484
    983,       18148.,  -253.122513,    933.99884
    984,       18148.,  -230.111374,   944.726257
    985,       18148.,   -207.10025,   955.453613
    986,       18148.,  -184.089111,   966.180969
    987,       18148.,  -161.077972,   976.908386
    988,       18148.,  -138.066833,   987.635742
    989,       18148.,  -115.055687,   998.363098
    990,       18148.,  -92.0445557,   1009.09052
    991,       18148.,  -69.0334167,   1019.81787
    992,       18148.,  -46.0222778,   1030.54529
    993,       18148.,  -23.0111389,   1041.27258
    994,       18148.,  -731.814331,   710.841431
    995,       18148.,  -709.042236,   721.457336
    996,       18148.,  -686.270142,   732.073303
    997,       18148.,  -663.498047,   742.689209
    998,       18148.,  -640.726013,   753.305115
    999,       18148.,  -617.953918,   763.921082
   1000,       18148.,  -595.181824,   774.536987
   1001,       18148.,  -572.409729,   785.152954
   1002,       18148.,  -549.637695,    795.76886
   1003,       18148.,  -526.865601,   806.384827
   1004,       18148.,  -504.093506,   817.000732
   1005,       18148.,  -481.321442,   827.616638
   1006,       18148.,  -458.549347,   838.232605
   1007,       18148.,  -435.777283,   848.848511
   1008,       18148.,  -413.005188,   859.464478
   1009,       18148.,  -390.233124,   870.080383
   1010,       18148.,  -367.461029,   880.696289
   1011,       18148.,  -344.688965,   891.312256
   1012,       18148.,   -321.91687,   901.928162
   1013,       13611.,   2456.27686,   2197.07178
   1014,       13611.,   2479.04907,   2207.68774
   1015,       13611.,   2501.82104,   2218.30371
   1016,       13611.,   2524.59302,   2228.91968
   1017,       13611.,   2547.36523,   2239.53564
   1018,       13611.,   2570.13721,   2250.15137
   1019,       13611.,   2592.90942,   2260.76733
   1020,       13611.,    2615.6814,    2271.3833
   1021,       13611.,   2638.45361,   2281.99927
   1022,       13611.,   2661.22559,   2292.61523
   1023,       13611.,   2683.99756,    2303.2312
   1024,       13611.,   2706.76978,   2313.84717
   1025,       13611.,   2729.54175,   2324.46289
   1026,       13611.,   2752.31396,   2335.07886
   1027,       13611.,   2775.08594,   2345.69482
   1028,       13611.,   2797.85815,   2356.31079
   1029,       13611.,   2820.63013,   2366.92676
   1030,       13611.,   2843.40234,   2377.54272
   1031,       13611.,   2866.17432,   2388.15869
   1032,       13611.,   2157.37109,   2057.72729
   1033,       13611.,   2180.38232,   2068.45483
   1034,       13611.,   2203.39331,   2079.18213
   1035,       13611.,   2226.40454,   2089.90942
   1036,       13611.,   2249.41577,   2100.63696
   1037,       13611.,   2272.42676,   2111.36426
   1038,       13611.,   2295.43799,   2122.09155
   1039,       13611.,   2318.44922,   2132.81909
   1040,       13611.,   2341.46021,   2143.54639
   1041,       13611.,   2364.47144,   2154.27368
   1042,       13611.,   2387.48242,   2165.00122
   1043,       13611.,   2410.49365,   2175.72852
   1044,       13611.,   1545.27856,   1772.38086
   1045,       13611.,   1567.93555,   1782.94312
   1046,       13611.,   1590.59253,   1793.50549
   1047,       13611.,   1613.24951,   1804.06775
   1048,       13611.,   1635.90649,      1814.63
   1049,       13611.,   1658.56348,   1825.19226
   1050,       13611.,   1681.22046,   1835.75452
   1051,       13611.,   1703.87744,   1846.31677
   1052,       13611.,   1726.53442,   1856.87903
   1053,       13611.,   1749.19141,   1867.44141
   1054,       13611.,   1771.84839,   1878.00366
   1055,       13611.,   1794.50537,   1888.56592
   1056,       13611.,   1817.16235,   1899.12817
   1057,       13611.,   1839.81934,   1909.69043
   1058,       13611.,   1862.47632,   1920.25269
   1059,       13611.,    1885.1333,   1930.81494
   1060,       13611.,   1907.79016,   1941.37732
   1061,       13611.,   1930.44714,   1951.93958
   1062,       13611.,   1953.10413,   1962.50183
   1063,       13611.,   1975.76111,   1973.06409
   1064,       13611.,   1998.41809,   1983.62634
   1065,       13611.,   2021.07507,    1994.1886
   1066,       13611.,   2043.73206,   2004.75085
   1067,       13611.,   2066.38916,   2015.31323
   1068,       13611.,   2089.04614,   2025.87549
   1069,       13611.,   2111.70312,   2036.43774
   1070,       13611.,   634.510498,   1347.79724
   1071,       13611.,   657.282532,   1358.41321
   1072,       13611.,   680.054626,   1369.02917
   1073,       13611.,   702.826721,   1379.64514
   1074,       13611.,   725.598816,   1390.26099
   1075,       13611.,   748.370911,   1400.87695
   1076,       13611.,   771.142944,   1411.49292
   1077,       13611.,   793.915039,   1422.10876
   1078,       13611.,   816.687134,   1432.72473
   1079,       13611.,   839.459229,    1443.3407
   1080,       13611.,   862.231262,   1453.95667
   1081,       13611.,   885.003357,   1464.57251
   1082,       13611.,   907.775452,   1475.18848
   1083,       13611.,   930.547546,   1485.80444
   1084,       13611.,    953.31958,   1496.42029
   1085,       13611.,   976.091675,   1507.03625
   1086,       13611.,    998.86377,   1517.65222
   1087,       13611.,   1021.63586,   1528.26819
   1088,       13611.,   1044.40796,   1538.88403
   1089,       13611.,   1067.18005,       1549.5
   1090,       13611.,   1089.95203,   1560.11597
   1091,       13611.,   1112.72412,   1570.73181
   1092,       13611.,   1135.49622,   1581.34778
   1093,       13611.,   1158.26831,   1591.96375
   1094,       13611.,   1181.04041,   1602.57971
   1095,       13611.,    1203.8125,   1613.19556
   1096,       13611.,   1226.58459,   1623.81152
   1097,       13611.,   1249.35669,   1634.42749
   1098,       13611.,   1272.12866,   1645.04333
   1099,       13611.,   1294.90076,    1655.6593
   1100,       13611.,   1317.67285,   1666.27527
   1101,       13611.,   1340.44495,   1676.89124
   1102,       13611.,   1363.21704,   1687.50708
   1103,       13611.,   1385.98914,   1698.12305
   1104,       13611.,   1408.76123,   1708.73901
   1105,       13611.,   1431.53333,   1719.35486
   1106,       13611.,    1454.3053,   1729.97083
   1107,       13611.,   1477.07739,   1740.58679
   1108,       13611.,   1499.84949,   1751.20276
   1109,       13611.,   22.6569786,   1062.56226
   1110,       13611.,   45.3139572,   1073.12451
   1111,       13611.,    67.970932,   1083.68677
   1112,       13611.,   90.6279144,   1094.24915
   1113,       13611.,   113.284889,    1104.8114
   1114,       13611.,   135.941864,   1115.37366
   1115,       13611.,   158.598846,   1125.93591
   1116,       13611.,   181.255829,   1136.49817
   1117,       13611.,   203.912796,   1147.06042
   1118,       13611.,   226.569778,   1157.62268
   1119,       13611.,   249.226761,   1168.18506
   1120,       13611.,   271.883728,   1178.74731
   1121,       13611.,    294.54071,   1189.30957
   1122,       13611.,   317.197693,   1199.87183
   1123,       13611.,   339.854675,   1210.43408
   1124,       13611.,   362.511658,   1220.99634
   1125,       13611.,    385.16861,   1231.55859
   1126,       13611.,   407.825592,   1242.12097
   1127,       13611.,   430.482574,   1252.68323
   1128,       13611.,   453.139557,   1263.24548
   1129,       13611.,   475.796539,   1273.80774
   1130,       13611.,   498.453522,      1284.37
   1131,       13611.,   521.110474,   1294.93225
   1132,       13611.,   543.767456,   1305.49451
   1133,       13611.,   566.424438,   1316.05688
   1134,       13611.,   589.081421,   1326.61914
   1135,       13611.,  -276.133667,   923.271484
   1136,       13611.,  -253.122513,    933.99884
   1137,       13611.,  -230.111374,   944.726257
   1138,       13611.,   -207.10025,   955.453613
   1139,       13611.,  -184.089111,   966.180969
   1140,       13611.,  -161.077972,   976.908386
   1141,       13611.,  -138.066833,   987.635742
   1142,       13611.,  -115.055687,   998.363098
   1143,       13611.,  -92.0445557,   1009.09052
   1144,       13611.,  -69.0334167,   1019.81787
   1145,       13611.,  -46.0222778,   1030.54529
   1146,       13611.,  -23.0111389,   1041.27258
   1147,       13611.,  -731.814331,   710.841431
   1148,       13611.,  -709.042236,   721.457336
   1149,       13611.,  -686.270142,   732.073303
   1150,       13611.,  -663.498047,   742.689209
   1151,       13611.,  -640.726013,   753.305115
   1152,       13611.,  -617.953918,   763.921082
   1153,       13611.,  -595.181824,   774.536987
   1154,       13611.,  -572.409729,   785.152954
   1155,       13611.,  -549.637695,    795.76886
   1156,       13611.,  -526.865601,   806.384827
   1157,       13611.,  -504.093506,   817.000732
   1158,       13611.,  -481.321442,   827.616638
   1159,       13611.,  -458.549347,   838.232605
   1160,       13611.,  -435.777283,   848.848511
   1161,       13611.,  -413.005188,   859.464478
   1162,       13611.,  -390.233124,   870.080383
   1163,       13611.,  -367.461029,   880.696289
   1164,       13611.,  -344.688965,   891.312256
   1165,       13611.,   -321.91687,   901.928162
   1166,        9074.,   2456.27686,   2197.07178
   1167,        9074.,   2479.04907,   2207.68774
   1168,        9074.,   2501.82104,   2218.30371
   1169,        9074.,   2524.59302,   2228.91968
   1170,        9074.,   2547.36523,   2239.53564
   1171,        9074.,   2570.13721,   2250.15137
   1172,        9074.,   2592.90942,   2260.76733
   1173,        9074.,    2615.6814,    2271.3833
   1174,        9074.,   2638.45361,   2281.99927
   1175,        9074.,   2661.22559,   2292.61523
   1176,        9074.,   2683.99756,    2303.2312
   1177,        9074.,   2706.76978,   2313.84717
   1178,        9074.,   2729.54175,   2324.46289
   1179,        9074.,   2752.31396,   2335.07886
   1180,        9074.,   2775.08594,   2345.69482
   1181,        9074.,   2797.85815,   2356.31079
   1182,        9074.,   2820.63013,   2366.92676
   1183,        9074.,   2843.40234,   2377.54272
   1184,        9074.,   2866.17432,   2388.15869
   1185,        9074.,   2157.37109,   2057.72729
   1186,        9074.,   2180.38232,   2068.45483
   1187,        9074.,   2203.39331,   2079.18213
   1188,        9074.,   2226.40454,   2089.90942
   1189,        9074.,   2249.41577,   2100.63696
   1190,        9074.,   2272.42676,   2111.36426
   1191,        9074.,   2295.43799,   2122.09155
   1192,        9074.,   2318.44922,   2132.81909
   1193,        9074.,   2341.46021,   2143.54639
   1194,        9074.,   2364.47144,   2154.27368
   1195,        9074.,   2387.48242,   2165.00122
   1196,        9074.,   2410.49365,   2175.72852
   1197,        9074.,   1545.27856,   1772.38086
   1198,        9074.,   1567.93555,   1782.94312
   1199,        9074.,   1590.59253,   1793.50549
   1200,        9074.,   1613.24951,   1804.06775
   1201,        9074.,   1635.90649,      1814.63
   1202,        9074.,   1658.56348,   1825.19226
   1203,        9074.,   1681.22046,   1835.75452
   1204,        9074.,   1703.87744,   1846.31677
   1205,        9074.,   1726.53442,   1856.87903
   1206,        9074.,   1749.19141,   1867.44141
   1207,        9074.,   1771.84839,   1878.00366
   1208,        9074.,   1794.50537,   1888.56592
   1209,        9074.,   1817.16235,   1899.12817
   1210,        9074.,   1839.81934,   1909.69043
   1211,        9074.,   1862.47632,   1920.25269
   1212,        9074.,    1885.1333,   1930.81494
   1213,        9074.,   1907.79016,   1941.37732
   1214,        9074.,   1930.44714,   1951.93958
   1215,        9074.,   1953.10413,   1962.50183
   1216,        9074.,   1975.76111,   1973.06409
   1217,        9074.,   1998.41809,   1983.62634
   1218,        9074.,   2021.07507,    1994.1886
   1219,        9074.,   2043.73206,   2004.75085
   1220,        9074.,   2066.38916,   2015.31323
   1221,        9074.,   2089.04614,   2025.87549
   1222,        9074.,   2111.70312,   2036.43774
   1223,        9074.,   634.510498,   1347.79724
   1224,        9074.,   657.282532,   1358.41321
   1225,        9074.,   680.054626,   1369.02917
   1226,        9074.,   702.826721,   1379.64514
   1227,        9074.,   725.598816,   1390.26099
   1228,        9074.,   748.370911,   1400.87695
   1229,        9074.,   771.142944,   1411.49292
   1230,        9074.,   793.915039,   1422.10876
   1231,        9074.,   816.687134,   1432.72473
   1232,        9074.,   839.459229,    1443.3407
   1233,        9074.,   862.231262,   1453.95667
   1234,        9074.,   885.003357,   1464.57251
   1235,        9074.,   907.775452,   1475.18848
   1236,        9074.,   930.547546,   1485.80444
   1237,        9074.,    953.31958,   1496.42029
   1238,        9074.,   976.091675,   1507.03625
   1239,        9074.,    998.86377,   1517.65222
   1240,        9074.,   1021.63586,   1528.26819
   1241,        9074.,   1044.40796,   1538.88403
   1242,        9074.,   1067.18005,       1549.5
   1243,        9074.,   1089.95203,   1560.11597
   1244,        9074.,   1112.72412,   1570.73181
   1245,        9074.,   1135.49622,   1581.34778
   1246,        9074.,   1158.26831,   1591.96375
   1247,        9074.,   1181.04041,   1602.57971
   1248,        9074.,    1203.8125,   1613.19556
   1249,        9074.,   1226.58459,   1623.81152
   1250,        9074.,   1249.35669,   1634.42749
   1251,        9074.,   1272.12866,   1645.04333
   1252,        9074.,   1294.90076,    1655.6593
   1253,        9074.,   1317.67285,   1666.27527
   1254,        9074.,   1340.44495,   1676.89124
   1255,        9074.,   1363.21704,   1687.50708
   1256,        9074.,   1385.98914,   1698.12305
   1257,        9074.,   1408.76123,   1708.73901
   1258,        9074.,   1431.53333,   1719.35486
   1259,        9074.,    1454.3053,   1729.97083
   1260,        9074.,   1477.07739,   1740.58679
   1261,        9074.,   1499.84949,   1751.20276
   1262,        9074.,   22.6569786,   1062.56226
   1263,        9074.,   45.3139572,   1073.12451
   1264,        9074.,    67.970932,   1083.68677
   1265,        9074.,   90.6279144,   1094.24915
   1266,        9074.,   113.284889,    1104.8114
   1267,        9074.,   135.941864,   1115.37366
   1268,        9074.,   158.598846,   1125.93591
   1269,        9074.,   181.255829,   1136.49817
   1270,        9074.,   203.912796,   1147.06042
   1271,        9074.,   226.569778,   1157.62268
   1272,        9074.,   249.226761,   1168.18506
   1273,        9074.,   271.883728,   1178.74731
   1274,        9074.,    294.54071,   1189.30957
   1275,        9074.,   317.197693,   1199.87183
   1276,        9074.,   339.854675,   1210.43408
   1277,        9074.,   362.511658,   1220.99634
   1278,        9074.,    385.16861,   1231.55859
   1279,        9074.,   407.825592,   1242.12097
   1280,        9074.,   430.482574,   1252.68323
   1281,        9074.,   453.139557,   1263.24548
   1282,        9074.,   475.796539,   1273.80774
   1283,        9074.,   498.453522,      1284.37
   1284,        9074.,   521.110474,   1294.93225
   1285,        9074.,   543.767456,   1305.49451
   1286,        9074.,   566.424438,   1316.05688
   1287,        9074.,   589.081421,   1326.61914
   1288,        9074.,  -276.133667,   923.271484
   1289,        9074.,  -253.122513,    933.99884
   1290,        9074.,  -230.111374,   944.726257
   1291,        9074.,   -207.10025,   955.453613
   1292,        9074.,  -184.089111,   966.180969
   1293,        9074.,  -161.077972,   976.908386
   1294,        9074.,  -138.066833,   987.635742
   1295,        9074.,  -115.055687,   998.363098
   1296,        9074.,  -92.0445557,   1009.09052
   1297,        9074.,  -69.0334167,   1019.81787
   1298,        9074.,  -46.0222778,   1030.54529
   1299,        9074.,  -23.0111389,   1041.27258
   1300,        9074.,  -731.814331,   710.841431
   1301,        9074.,  -709.042236,   721.457336
   1302,        9074.,  -686.270142,   732.073303
   1303,        9074.,  -663.498047,   742.689209
   1304,        9074.,  -640.726013,   753.305115
   1305,        9074.,  -617.953918,   763.921082
   1306,        9074.,  -595.181824,   774.536987
   1307,        9074.,  -572.409729,   785.152954
   1308,        9074.,  -549.637695,    795.76886
   1309,        9074.,  -526.865601,   806.384827
   1310,        9074.,  -504.093506,   817.000732
   1311,        9074.,  -481.321442,   827.616638
   1312,        9074.,  -458.549347,   838.232605
   1313,        9074.,  -435.777283,   848.848511
   1314,        9074.,  -413.005188,   859.464478
   1315,        9074.,  -390.233124,   870.080383
   1316,        9074.,  -367.461029,   880.696289
   1317,        9074.,  -344.688965,   891.312256
   1318,        9074.,   -321.91687,   901.928162
   1319,        4537.,   2456.27686,   2197.07178
   1320,        4537.,   2479.04907,   2207.68774
   1321,        4537.,   2501.82104,   2218.30371
   1322,        4537.,   2524.59302,   2228.91968
   1323,        4537.,   2547.36523,   2239.53564
   1324,        4537.,   2570.13721,   2250.15137
   1325,        4537.,   2592.90942,   2260.76733
   1326,        4537.,    2615.6814,    2271.3833
   1327,        4537.,   2638.45361,   2281.99927
   1328,        4537.,   2661.22559,   2292.61523
   1329,        4537.,   2683.99756,    2303.2312
   1330,        4537.,   2706.76978,   2313.84717
   1331,        4537.,   2729.54175,   2324.46289
   1332,        4537.,   2752.31396,   2335.07886
   1333,        4537.,   2775.08594,   2345.69482
   1334,        4537.,   2797.85815,   2356.31079
   1335,        4537.,   2820.63013,   2366.92676
   1336,        4537.,   2843.40234,   2377.54272
   1337,        4537.,   2866.17432,   2388.15869
   1338,        4537.,   2157.37109,   2057.72729
   1339,        4537.,   2180.38232,   2068.45483
   1340,        4537.,   2203.39331,   2079.18213
   1341,        4537.,   2226.40454,   2089.90942
   1342,        4537.,   2249.41577,   2100.63696
   1343,        4537.,   2272.42676,   2111.36426
   1344,        4537.,   2295.43799,   2122.09155
   1345,        4537.,   2318.44922,   2132.81909
   1346,        4537.,   2341.46021,   2143.54639
   1347,        4537.,   2364.47144,   2154.27368
   1348,        4537.,   2387.48242,   2165.00122
   1349,        4537.,   2410.49365,   2175.72852
   1350,        4537.,   1545.27856,   1772.38086
   1351,        4537.,   1567.93555,   1782.94312
   1352,        4537.,   1590.59253,   1793.50549
   1353,        4537.,   1613.24951,   1804.06775
   1354,        4537.,   1635.90649,      1814.63
   1355,        4537.,   1658.56348,   1825.19226
   1356,        4537.,   1681.22046,   1835.75452
   1357,        4537.,   1703.87744,   1846.31677
   1358,        4537.,   1726.53442,   1856.87903
   1359,        4537.,   1749.19141,   1867.44141
   1360,        4537.,   1771.84839,   1878.00366
   1361,        4537.,   1794.50537,   1888.56592
   1362,        4537.,   1817.16235,   1899.12817
   1363,        4537.,   1839.81934,   1909.69043
   1364,        4537.,   1862.47632,   1920.25269
   1365,        4537.,    1885.1333,   1930.81494
   1366,        4537.,   1907.79016,   1941.37732
   1367,        4537.,   1930.44714,   1951.93958
   1368,        4537.,   1953.10413,   1962.50183
   1369,        4537.,   1975.76111,   1973.06409
   1370,        4537.,   1998.41809,   1983.62634
   1371,        4537.,   2021.07507,    1994.1886
   1372,        4537.,   2043.73206,   2004.75085
   1373,        4537.,   2066.38916,   2015.31323
   1374,        4537.,   2089.04614,   2025.87549
   1375,        4537.,   2111.70312,   2036.43774
   1376,        4537.,   634.510498,   1347.79724
   1377,        4537.,   657.282532,   1358.41321
   1378,        4537.,   680.054626,   1369.02917
   1379,        4537.,   702.826721,   1379.64514
   1380,        4537.,   725.598816,   1390.26099
   1381,        4537.,   748.370911,   1400.87695
   1382,        4537.,   771.142944,   1411.49292
   1383,        4537.,   793.915039,   1422.10876
   1384,        4537.,   816.687134,   1432.72473
   1385,        4537.,   839.459229,    1443.3407
   1386,        4537.,   862.231262,   1453.95667
   1387,        4537.,   885.003357,   1464.57251
   1388,        4537.,   907.775452,   1475.18848
   1389,        4537.,   930.547546,   1485.80444
   1390,        4537.,    953.31958,   1496.42029
   1391,        4537.,   976.091675,   1507.03625
   1392,        4537.,    998.86377,   1517.65222
   1393,        4537.,   1021.63586,   1528.26819
   1394,        4537.,   1044.40796,   1538.88403
   1395,        4537.,   1067.18005,       1549.5
   1396,        4537.,   1089.95203,   1560.11597
   1397,        4537.,   1112.72412,   1570.73181
   1398,        4537.,   1135.49622,   1581.34778
   1399,        4537.,   1158.26831,   1591.96375
   1400,        4537.,   1181.04041,   1602.57971
   1401,        4537.,    1203.8125,   1613.19556
   1402,        4537.,   1226.58459,   1623.81152
   1403,        4537.,   1249.35669,   1634.42749
   1404,        4537.,   1272.12866,   1645.04333
   1405,        4537.,   1294.90076,    1655.6593
   1406,        4537.,   1317.67285,   1666.27527
   1407,        4537.,   1340.44495,   1676.89124
   1408,        4537.,   1363.21704,   1687.50708
   1409,        4537.,   1385.98914,   1698.12305
   1410,        4537.,   1408.76123,   1708.73901
   1411,        4537.,   1431.53333,   1719.35486
   1412,        4537.,    1454.3053,   1729.97083
   1413,        4537.,   1477.07739,   1740.58679
   1414,        4537.,   1499.84949,   1751.20276
   1415,        4537.,   22.6569786,   1062.56226
   1416,        4537.,   45.3139572,   1073.12451
   1417,        4537.,    67.970932,   1083.68677
   1418,        4537.,   90.6279144,   1094.24915
   1419,        4537.,   113.284889,    1104.8114
   1420,        4537.,   135.941864,   1115.37366
   1421,        4537.,   158.598846,   1125.93591
   1422,        4537.,   181.255829,   1136.49817
   1423,        4537.,   203.912796,   1147.06042
   1424,        4537.,   226.569778,   1157.62268
   1425,        4537.,   249.226761,   1168.18506
   1426,        4537.,   271.883728,   1178.74731
   1427,        4537.,    294.54071,   1189.30957
   1428,        4537.,   317.197693,   1199.87183
   1429,        4537.,   339.854675,   1210.43408
   1430,        4537.,   362.511658,   1220.99634
   1431,        4537.,    385.16861,   1231.55859
   1432,        4537.,   407.825592,   1242.12097
   1433,        4537.,   430.482574,   1252.68323
   1434,        4537.,   453.139557,   1263.24548
   1435,        4537.,   475.796539,   1273.80774
   1436,        4537.,   498.453522,      1284.37
   1437,        4537.,   521.110474,   1294.93225
   1438,        4537.,   543.767456,   1305.49451
   1439,        4537.,   566.424438,   1316.05688
   1440,        4537.,   589.081421,   1326.61914
   1441,        4537.,  -276.133667,   923.271484
   1442,        4537.,  -253.122513,    933.99884
   1443,        4537.,  -230.111374,   944.726257
   1444,        4537.,   -207.10025,   955.453613
   1445,        4537.,  -184.089111,   966.180969
   1446,        4537.,  -161.077972,   976.908386
   1447,        4537.,  -138.066833,   987.635742
   1448,        4537.,  -115.055687,   998.363098
   1449,        4537.,  -92.0445557,   1009.09052
   1450,        4537.,  -69.0334167,   1019.81787
   1451,        4537.,  -46.0222778,   1030.54529
   1452,        4537.,  -23.0111389,   1041.27258
   1453,        4537.,  -731.814331,   710.841431
   1454,        4537.,  -709.042236,   721.457336
   1455,        4537.,  -686.270142,   732.073303
   1456,        4537.,  -663.498047,   742.689209
   1457,        4537.,  -640.726013,   753.305115
   1458,        4537.,  -617.953918,   763.921082
   1459,        4537.,  -595.181824,   774.536987
   1460,        4537.,  -572.409729,   785.152954
   1461,        4537.,  -549.637695,    795.76886
   1462,        4537.,  -526.865601,   806.384827
   1463,        4537.,  -504.093506,   817.000732
   1464,        4537.,  -481.321442,   827.616638
   1465,        4537.,  -458.549347,   838.232605
   1466,        4537.,  -435.777283,   848.848511
   1467,        4537.,  -413.005188,   859.464478
   1468,        4537.,  -390.233124,   870.080383
   1469,        4537.,  -367.461029,   880.696289
   1470,        4537.,  -344.688965,   891.312256
   1471,        4537.,   -321.91687,   901.928162
   1472,           0.,   2157.37109,   2057.72729
   1473,           0.,   2180.38232,   2068.45483
   1474,           0.,   2203.39331,   2079.18213
   1475,           0.,   2226.40454,   2089.90942
   1476,           0.,   2249.41577,   2100.63696
   1477,           0.,   2272.42676,   2111.36426
   1478,           0.,   2295.43799,   2122.09155
   1479,           0.,   2318.44922,   2132.81909
   1480,           0.,   2341.46021,   2143.54639
   1481,           0.,   2364.47144,   2154.27368
   1482,           0.,   2387.48242,   2165.00122
   1483,           0.,   2410.49365,   2175.72852
   1484,           0.,   1545.27856,   1772.38086
   1485,           0.,   1567.93555,   1782.94312
   1486,           0.,   1590.59253,   1793.50549
   1487,           0.,   1613.24951,   1804.06775
   1488,           0.,   1635.90649,      1814.63
   1489,           0.,   1658.56348,   1825.19226
   1490,           0.,   1681.22046,   1835.75452
   1491,           0.,   1703.87744,   1846.31677
   1492,           0.,   1726.53442,   1856.87903
   1493,           0.,   1749.19141,   1867.44141
   1494,           0.,   1771.84839,   1878.00366
   1495,           0.,   1794.50537,   1888.56592
   1496,           0.,   1817.16235,   1899.12817
   1497,           0.,   1839.81934,   1909.69043
   1498,           0.,   1862.47632,   1920.25269
   1499,           0.,    1885.1333,   1930.81494
   1500,           0.,   1907.79016,   1941.37732
   1501,           0.,   1930.44714,   1951.93958
   1502,           0.,   1953.10413,   1962.50183
   1503,           0.,   1975.76111,   1973.06409
   1504,           0.,   1998.41809,   1983.62634
   1505,           0.,   2021.07507,    1994.1886
   1506,           0.,   2043.73206,   2004.75085
   1507,           0.,   2066.38916,   2015.31323
   1508,           0.,   2089.04614,   2025.87549
   1509,           0.,   2111.70312,   2036.43774
   1510,           0.,   634.510498,   1347.79724
   1511,           0.,   657.282532,   1358.41321
   1512,           0.,   680.054626,   1369.02917
   1513,           0.,   702.826721,   1379.64514
   1514,           0.,   725.598816,   1390.26099
   1515,           0.,   748.370911,   1400.87695
   1516,           0.,   771.142944,   1411.49292
   1517,           0.,   793.915039,   1422.10876
   1518,           0.,   816.687134,   1432.72473
   1519,           0.,   839.459229,    1443.3407
   1520,           0.,   862.231262,   1453.95667
   1521,           0.,   885.003357,   1464.57251
   1522,           0.,   907.775452,   1475.18848
   1523,           0.,   930.547546,   1485.80444
   1524,           0.,    953.31958,   1496.42029
   1525,           0.,   976.091675,   1507.03625
   1526,           0.,    998.86377,   1517.65222
   1527,           0.,   1021.63586,   1528.26819
   1528,           0.,   1044.40796,   1538.88403
   1529,           0.,   1067.18005,       1549.5
   1530,           0.,   1089.95203,   1560.11597
   1531,           0.,   1112.72412,   1570.73181
   1532,           0.,   1135.49622,   1581.34778
   1533,           0.,   1158.26831,   1591.96375
   1534,           0.,   1181.04041,   1602.57971
   1535,           0.,    1203.8125,   1613.19556
   1536,           0.,   1226.58459,   1623.81152
   1537,           0.,   1249.35669,   1634.42749
   1538,           0.,   1272.12866,   1645.04333
   1539,           0.,   1294.90076,    1655.6593
   1540,           0.,   1317.67285,   1666.27527
   1541,           0.,   1340.44495,   1676.89124
   1542,           0.,   1363.21704,   1687.50708
   1543,           0.,   1385.98914,   1698.12305
   1544,           0.,   1408.76123,   1708.73901
   1545,           0.,   1431.53333,   1719.35486
   1546,           0.,    1454.3053,   1729.97083
   1547,           0.,   1477.07739,   1740.58679
   1548,           0.,   1499.84949,   1751.20276
   1549,           0.,   22.6569786,   1062.56226
   1550,           0.,   45.3139572,   1073.12451
   1551,           0.,    67.970932,   1083.68677
   1552,           0.,   90.6279144,   1094.24915
   1553,           0.,   113.284889,    1104.8114
   1554,           0.,   135.941864,   1115.37366
   1555,           0.,   158.598846,   1125.93591
   1556,           0.,   181.255829,   1136.49817
   1557,           0.,   203.912796,   1147.06042
   1558,           0.,   226.569778,   1157.62268
   1559,           0.,   249.226761,   1168.18506
   1560,           0.,   271.883728,   1178.74731
   1561,           0.,    294.54071,   1189.30957
   1562,           0.,   317.197693,   1199.87183
   1563,           0.,   339.854675,   1210.43408
   1564,           0.,   362.511658,   1220.99634
   1565,           0.,    385.16861,   1231.55859
   1566,           0.,   407.825592,   1242.12097
   1567,           0.,   430.482574,   1252.68323
   1568,           0.,   453.139557,   1263.24548
   1569,           0.,   475.796539,   1273.80774
   1570,           0.,   498.453522,      1284.37
   1571,           0.,   521.110474,   1294.93225
   1572,           0.,   543.767456,   1305.49451
   1573,           0.,   566.424438,   1316.05688
   1574,           0.,   589.081421,   1326.61914
   1575,           0.,  -276.133667,   923.271484
   1576,           0.,  -253.122513,    933.99884
   1577,           0.,  -230.111374,   944.726257
   1578,           0.,   -207.10025,   955.453613
   1579,           0.,  -184.089111,   966.180969
   1580,           0.,  -161.077972,   976.908386
   1581,           0.,  -138.066833,   987.635742
   1582,           0.,  -115.055687,   998.363098
   1583,           0.,  -92.0445557,   1009.09052
   1584,           0.,  -69.0334167,   1019.81787
   1585,           0.,  -46.0222778,   1030.54529
   1586,           0.,  -23.0111389,   1041.27258
   1587,           0.,  -731.814331,   710.841431
   1588,           0.,  -709.042236,   721.457336
   1589,           0.,  -686.270142,   732.073303
   1590,           0.,  -663.498047,   742.689209
   1591,           0.,  -640.726013,   753.305115
   1592,           0.,  -617.953918,   763.921082
   1593,           0.,  -595.181824,   774.536987
   1594,           0.,  -572.409729,   785.152954
   1595,           0.,  -549.637695,    795.76886
   1596,           0.,  -526.865601,   806.384827
   1597,           0.,  -504.093506,   817.000732
   1598,           0.,  -481.321442,   827.616638
   1599,           0.,  -458.549347,   838.232605
   1600,           0.,  -435.777283,   848.848511
   1601,           0.,  -413.005188,   859.464478
   1602,           0.,  -390.233124,   870.080383
   1603,           0.,  -367.461029,   880.696289
   1604,           0.,  -344.688965,   891.312256
   1605,           0.,   -321.91687,   901.928162
   1606,       18148.,   2134.36011,   441.850464
   1607,       18148.,   2134.36011,   466.930908
   1608,       18148.,   2134.36011,   492.011383
   1609,       18148.,   2134.36011,   517.091858
   1610,       18148.,   2134.36011,   542.172302
   1611,       18148.,   2134.36011,   567.252747
   1612,       18148.,   2134.36011,   592.333252
   1613,       18148.,   2134.36011,   617.413696
   1614,       18148.,   2134.36011,   642.494141
   1615,       18148.,   2134.36011,   667.574585
   1616,       18148.,   2134.36011,    692.65509
   1617,       18148.,   2134.36011,   717.735535
   1618,       18148.,   2134.36011,   742.815979
   1619,       18148.,   2134.36011,   767.896484
   1620,       18148.,   2134.36011,   792.976929
   1621,       18148.,   2134.36011,   818.057373
   1622,       18148.,   2134.36011,   843.137817
   1623,       18148.,   2134.36011,   868.218323
   1624,       18148.,   2134.36011,   893.298767
   1625,       18148.,   2134.36011,   918.379211
   1626,       18148.,   2134.36011,   943.459717
   1627,       18148.,   2134.36011,   968.540161
   1628,       18148.,   2134.36011,   993.620605
   1629,       18148.,   2134.36011,   1018.70105
   1630,       18148.,   2134.36011,   1043.78149
   1631,       18148.,   2134.36011,   1068.86206
   1632,       18148.,   2134.36011,    1093.9425
   1633,       18148.,   2134.36011,   1119.02295
   1634,       18148.,   2134.36011,   1144.10339
   1635,       18148.,   2134.36011,   1169.18384
   1636,       18148.,   2134.36011,   1194.26428
   1637,       18148.,   2134.36011,   1219.34473
   1638,       18148.,   2134.36011,   1244.42517
   1639,       18148.,   2134.36011,   1269.50574
   1640,       18148.,   2134.36011,   1294.58618
   1641,       18148.,   2134.36011,   1319.66663
   1642,       18148.,   2134.36011,   1344.74707
   1643,       18148.,   2134.36011,   1369.82751
   1644,       18148.,   2134.36011,   1394.90796
   1645,       18148.,   2134.36011,    1419.9884
   1646,       18148.,   2134.36011,   1445.06897
   1647,       18148.,   2134.36011,   1470.14941
   1648,       18148.,   2134.36011,   1495.22986
   1649,       18148.,   2134.36011,    1520.3103
   1650,       18148.,   2134.36011,   1545.39075
   1651,       18148.,   2134.36011,   1570.47119
   1652,       18148.,   2134.36011,   1595.55164
   1653,       18148.,   2134.36011,    1620.6322
   1654,       18148.,   2134.36011,   1645.71265
   1655,       18148.,   2134.36011,   1670.79309
   1656,       18148.,   2134.36011,   1695.87354
   1657,       18148.,   2134.36011,   1720.95398
   1658,       18148.,   2134.36011,   1746.03442
   1659,       18148.,   2134.36011,   1771.11487
   1660,       18148.,   2134.36011,   1796.19543
   1661,       18148.,   2134.36011,   1821.27588
   1662,       18148.,   2134.36011,   1846.35632
   1663,       18148.,   2134.36011,   1871.43677
   1664,       18148.,   2134.36011,   1896.51721
   1665,       18148.,   2134.36011,   1921.59766
   1666,       18148.,   2134.36011,    1946.6781
   1667,       18148.,   2134.36011,   1971.75867
   1668,       18148.,   2134.36011,   1996.83911
   1669,       18148.,   2134.36011,   2021.91956
   1670,       18148.,   2134.36011,   24.5158825
   1671,       18148.,   2134.36011,    49.031765
   1672,       18148.,   2134.36011,   73.5476456
   1673,       18148.,   2134.36011,     98.06353
   1674,       18148.,   2134.36011,   122.579414
   1675,       18148.,   2134.36011,   147.095291
   1676,       18148.,   2134.36011,   171.611176
   1677,       18148.,   2134.36011,    196.12706
   1678,       18148.,   2134.36011,   220.642944
   1679,       18148.,   2134.36011,   245.158829
   1680,       18148.,   2134.36011,   269.674713
   1681,       18148.,   2134.36011,   294.190582
   1682,       18148.,   2134.36011,   318.706482
   1683,       18148.,   2134.36011,   343.222351
   1684,       18148.,   2134.36011,    367.73822
   1685,       18148.,   2134.36011,    392.25412
   1686,   17761.3242,   1522.62158,    1761.8186
   1687,   17787.1016,   1522.62158,    1761.8186
   1688,   17812.8809,   1522.62158,    1761.8186
   1689,   17838.6582,   1522.62158,    1761.8186
   1690,   17864.4375,   1522.62158,    1761.8186
   1691,   17890.2168,   1522.62158,    1761.8186
   1692,   17915.9941,   1522.62158,    1761.8186
   1693,   17941.7734,   1522.62158,    1761.8186
   1694,   17967.5508,   1522.62158,    1761.8186
   1695,   17993.3301,   1522.62158,    1761.8186
   1696,   18019.1074,   1522.62158,    1761.8186
   1697,   18044.8867,   1522.62158,    1761.8186
   1698,   18070.6641,   1522.62158,    1761.8186
   1699,   18096.4434,   1522.62158,    1761.8186
   1700,   18122.2207,   1522.62158,    1761.8186
   1701,   16935.6328,   1522.62158,    1761.8186
   1702,   16960.6309,   1522.62158,    1761.8186
   1703,   16985.6289,   1522.62158,    1761.8186
   1704,    17010.625,   1522.62158,    1761.8186
   1705,    17035.623,   1522.62158,    1761.8186
   1706,   17060.6191,   1522.62158,    1761.8186
   1707,   17085.6172,   1522.62158,    1761.8186
   1708,   17110.6152,   1522.62158,    1761.8186
   1709,   17135.6113,   1522.62158,    1761.8186
   1710,   17160.6094,   1522.62158,    1761.8186
   1711,   17185.6055,   1522.62158,    1761.8186
   1712,   17210.6035,   1522.62158,    1761.8186
   1713,   17235.5996,   1522.62158,    1761.8186
   1714,   17260.5977,   1522.62158,    1761.8186
   1715,   17285.5957,   1522.62158,    1761.8186
   1716,   17310.5918,   1522.62158,    1761.8186
   1717,   17335.5898,   1522.62158,    1761.8186
   1718,   17360.5859,   1522.62158,    1761.8186
   1719,    17385.584,   1522.62158,    1761.8186
   1720,    17410.582,   1522.62158,    1761.8186
   1721,   17435.5781,   1522.62158,    1761.8186
   1722,   17460.5762,   1522.62158,    1761.8186
   1723,   17485.5723,   1522.62158,    1761.8186
   1724,   17510.5703,   1522.62158,    1761.8186
   1725,   17535.5684,   1522.62158,    1761.8186
   1726,   17560.5645,   1522.62158,    1761.8186
   1727,   17585.5625,   1522.62158,    1761.8186
   1728,   17610.5586,   1522.62158,    1761.8186
   1729,   17635.5566,   1522.62158,    1761.8186
   1730,   17660.5547,   1522.62158,    1761.8186
   1731,   17685.5508,   1522.62158,    1761.8186
   1732,   17710.5488,   1522.62158,    1761.8186
   1733,   16110.7246,   1522.62158,    1761.8186
   1734,   16135.7217,   1522.62158,    1761.8186
   1735,   16160.7188,   1522.62158,    1761.8186
   1736,   16185.7158,   1522.62158,    1761.8186
   1737,   16210.7139,   1522.62158,    1761.8186
   1738,   16235.7109,   1522.62158,    1761.8186
   1739,    16260.708,   1522.62158,    1761.8186
   1740,   16285.7051,   1522.62158,    1761.8186
   1741,   16310.7021,   1522.62158,    1761.8186
   1742,   16335.7002,   1522.62158,    1761.8186
   1743,   16360.6973,   1522.62158,    1761.8186
   1744,   16385.6934,   1522.62158,    1761.8186
   1745,   16410.6914,   1522.62158,    1761.8186
   1746,   16435.6895,   1522.62158,    1761.8186
   1747,   16460.6855,   1522.62158,    1761.8186
   1748,   16485.6836,   1522.62158,    1761.8186
   1749,   16510.6797,   1522.62158,    1761.8186
   1750,   16535.6777,   1522.62158,    1761.8186
   1751,   16560.6758,   1522.62158,    1761.8186
   1752,   16585.6719,   1522.62158,    1761.8186
   1753,   16610.6699,   1522.62158,    1761.8186
   1754,    16635.666,   1522.62158,    1761.8186
   1755,   16660.6641,   1522.62158,    1761.8186
   1756,   16685.6621,   1522.62158,    1761.8186
   1757,   16710.6582,   1522.62158,    1761.8186
   1758,   16735.6562,   1522.62158,    1761.8186
   1759,   16760.6523,   1522.62158,    1761.8186
   1760,   16785.6504,   1522.62158,    1761.8186
   1761,   16810.6465,   1522.62158,    1761.8186
   1762,   16835.6445,   1522.62158,    1761.8186
   1763,   16860.6426,   1522.62158,    1761.8186
   1764,   16885.6387,   1522.62158,    1761.8186
   1765,   15285.8154,   1522.62158,    1761.8186
   1766,   15310.8125,   1522.62158,    1761.8186
   1767,   15335.8096,   1522.62158,    1761.8186
   1768,   15360.8076,   1522.62158,    1761.8186
   1769,   15385.8047,   1522.62158,    1761.8186
   1770,   15410.8018,   1522.62158,    1761.8186
   1771,   15435.7988,   1522.62158,    1761.8186
   1772,   15460.7959,   1522.62158,    1761.8186
   1773,    15485.793,   1522.62158,    1761.8186
   1774,    15510.791,   1522.62158,    1761.8186
   1775,   15535.7881,   1522.62158,    1761.8186
   1776,   15560.7852,   1522.62158,    1761.8186
   1777,   15585.7822,   1522.62158,    1761.8186
   1778,   15610.7793,   1522.62158,    1761.8186
   1779,   15635.7773,   1522.62158,    1761.8186
   1780,   15660.7744,   1522.62158,    1761.8186
   1781,   15685.7715,   1522.62158,    1761.8186
   1782,   15710.7686,   1522.62158,    1761.8186
   1783,   15735.7656,   1522.62158,    1761.8186
   1784,   15760.7627,   1522.62158,    1761.8186
   1785,   15785.7607,   1522.62158,    1761.8186
   1786,   15810.7578,   1522.62158,    1761.8186
   1787,   15835.7549,   1522.62158,    1761.8186
   1788,    15860.752,   1522.62158,    1761.8186
   1789,    15885.749,   1522.62158,    1761.8186
   1790,   15910.7461,   1522.62158,    1761.8186
   1791,   15935.7441,   1522.62158,    1761.8186
   1792,   15960.7412,   1522.62158,    1761.8186
   1793,   15985.7383,   1522.62158,    1761.8186
   1794,   16010.7354,   1522.62158,    1761.8186
   1795,   16035.7324,   1522.62158,    1761.8186
   1796,   16060.7305,   1522.62158,    1761.8186
   1797,   14460.9062,   1522.62158,    1761.8186
   1798,   14485.9033,   1522.62158,    1761.8186
   1799,   14510.9004,   1522.62158,    1761.8186
   1800,   14535.8984,   1522.62158,    1761.8186
   1801,   14560.8955,   1522.62158,    1761.8186
   1802,   14585.8926,   1522.62158,    1761.8186
   1803,   14610.8896,   1522.62158,    1761.8186
   1804,   14635.8867,   1522.62158,    1761.8186
   1805,   14660.8848,   1522.62158,    1761.8186
   1806,   14685.8818,   1522.62158,    1761.8186
   1807,   14710.8789,   1522.62158,    1761.8186
   1808,    14735.876,   1522.62158,    1761.8186
   1809,    14760.873,   1522.62158,    1761.8186
   1810,   14785.8701,   1522.62158,    1761.8186
   1811,   14810.8682,   1522.62158,    1761.8186
   1812,   14835.8652,   1522.62158,    1761.8186
   1813,   14860.8623,   1522.62158,    1761.8186
   1814,   14885.8594,   1522.62158,    1761.8186
   1815,   14910.8564,   1522.62158,    1761.8186
   1816,   14935.8535,   1522.62158,    1761.8186
   1817,   14960.8516,   1522.62158,    1761.8186
   1818,   14985.8486,   1522.62158,    1761.8186
   1819,   15010.8457,   1522.62158,    1761.8186
   1820,   15035.8428,   1522.62158,    1761.8186
   1821,   15060.8398,   1522.62158,    1761.8186
   1822,   15085.8379,   1522.62158,    1761.8186
   1823,    15110.835,   1522.62158,    1761.8186
   1824,    15135.832,   1522.62158,    1761.8186
   1825,   15160.8291,   1522.62158,    1761.8186
   1826,   15185.8262,   1522.62158,    1761.8186
   1827,   15210.8232,   1522.62158,    1761.8186
   1828,   15235.8213,   1522.62158,    1761.8186
   1829,   13635.9971,   1522.62158,    1761.8186
   1830,   13660.9941,   1522.62158,    1761.8186
   1831,   13685.9922,   1522.62158,    1761.8186
   1832,   13710.9893,   1522.62158,    1761.8186
   1833,   13735.9863,   1522.62158,    1761.8186
   1834,   13760.9834,   1522.62158,    1761.8186
   1835,   13785.9805,   1522.62158,    1761.8186
   1836,   13810.9775,   1522.62158,    1761.8186
   1837,   13835.9756,   1522.62158,    1761.8186
   1838,   13860.9727,   1522.62158,    1761.8186
   1839,   13885.9697,   1522.62158,    1761.8186
   1840,   13910.9668,   1522.62158,    1761.8186
   1841,   13935.9639,   1522.62158,    1761.8186
   1842,   13960.9619,   1522.62158,    1761.8186
   1843,    13985.959,   1522.62158,    1761.8186
   1844,   14010.9561,   1522.62158,    1761.8186
   1845,   14035.9531,   1522.62158,    1761.8186
   1846,   14060.9502,   1522.62158,    1761.8186
   1847,   14085.9473,   1522.62158,    1761.8186
   1848,   14110.9453,   1522.62158,    1761.8186
   1849,   14135.9424,   1522.62158,    1761.8186
   1850,   14160.9395,   1522.62158,    1761.8186
   1851,   14185.9365,   1522.62158,    1761.8186
   1852,   14210.9336,   1522.62158,    1761.8186
   1853,   14235.9307,   1522.62158,    1761.8186
   1854,   14260.9287,   1522.62158,    1761.8186
   1855,   14285.9258,   1522.62158,    1761.8186
   1856,   14310.9229,   1522.62158,    1761.8186
   1857,   14335.9199,   1522.62158,    1761.8186
   1858,    14360.917,   1522.62158,    1761.8186
   1859,    14385.915,   1522.62158,    1761.8186
   1860,   14410.9121,   1522.62158,    1761.8186
   1861,   12811.0879,   1522.62158,    1761.8186
   1862,    12836.085,   1522.62158,    1761.8186
   1863,    12861.083,   1522.62158,    1761.8186
   1864,   12886.0801,   1522.62158,    1761.8186
   1865,   12911.0771,   1522.62158,    1761.8186
   1866,   12936.0742,   1522.62158,    1761.8186
   1867,   12961.0713,   1522.62158,    1761.8186
   1868,   12986.0693,   1522.62158,    1761.8186
   1869,   13011.0664,   1522.62158,    1761.8186
   1870,   13036.0635,   1522.62158,    1761.8186
   1871,   13061.0605,   1522.62158,    1761.8186
   1872,   13086.0576,   1522.62158,    1761.8186
   1873,   13111.0547,   1522.62158,    1761.8186
   1874,   13136.0527,   1522.62158,    1761.8186
   1875,   13161.0498,   1522.62158,    1761.8186
   1876,   13186.0469,   1522.62158,    1761.8186
   1877,   13211.0439,   1522.62158,    1761.8186
   1878,    13236.041,   1522.62158,    1761.8186
   1879,   13261.0381,   1522.62158,    1761.8186
   1880,   13286.0361,   1522.62158,    1761.8186
   1881,   13311.0332,   1522.62158,    1761.8186
   1882,   13336.0303,   1522.62158,    1761.8186
   1883,   13361.0273,   1522.62158,    1761.8186
   1884,   13386.0244,   1522.62158,    1761.8186
   1885,   13411.0225,   1522.62158,    1761.8186
   1886,   13436.0195,   1522.62158,    1761.8186
   1887,   13461.0166,   1522.62158,    1761.8186
   1888,   13486.0137,   1522.62158,    1761.8186
   1889,   13511.0107,   1522.62158,    1761.8186
   1890,   13536.0078,   1522.62158,    1761.8186
   1891,   13561.0059,   1522.62158,    1761.8186
   1892,   13586.0029,   1522.62158,    1761.8186
   1893,   11986.1787,   1522.62158,    1761.8186
   1894,   12011.1768,   1522.62158,    1761.8186
   1895,   12036.1738,   1522.62158,    1761.8186
   1896,   12061.1709,   1522.62158,    1761.8186
   1897,    12086.168,   1522.62158,    1761.8186
   1898,    12111.165,   1522.62158,    1761.8186
   1899,   12136.1621,   1522.62158,    1761.8186
   1900,   12161.1602,   1522.62158,    1761.8186
   1901,   12186.1572,   1522.62158,    1761.8186
   1902,   12211.1543,   1522.62158,    1761.8186
   1903,   12236.1514,   1522.62158,    1761.8186
   1904,   12261.1484,   1522.62158,    1761.8186
   1905,   12286.1465,   1522.62158,    1761.8186
   1906,   12311.1436,   1522.62158,    1761.8186
   1907,   12336.1406,   1522.62158,    1761.8186
   1908,   12361.1377,   1522.62158,    1761.8186
   1909,   12386.1348,   1522.62158,    1761.8186
   1910,   12411.1318,   1522.62158,    1761.8186
   1911,   12436.1299,   1522.62158,    1761.8186
   1912,    12461.127,   1522.62158,    1761.8186
   1913,    12486.124,   1522.62158,    1761.8186
   1914,   12511.1211,   1522.62158,    1761.8186
   1915,   12536.1182,   1522.62158,    1761.8186
   1916,   12561.1152,   1522.62158,    1761.8186
   1917,   12586.1133,   1522.62158,    1761.8186
   1918,   12611.1104,   1522.62158,    1761.8186
   1919,   12636.1074,   1522.62158,    1761.8186
   1920,   12661.1045,   1522.62158,    1761.8186
   1921,   12686.1016,   1522.62158,    1761.8186
   1922,   12711.0996,   1522.62158,    1761.8186
   1923,   12736.0967,   1522.62158,    1761.8186
   1924,   12761.0938,   1522.62158,    1761.8186
   1925,   11161.2695,   1522.62158,    1761.8186
   1926,   11186.2676,   1522.62158,    1761.8186
   1927,   11211.2646,   1522.62158,    1761.8186
   1928,   11236.2617,   1522.62158,    1761.8186
   1929,   11261.2588,   1522.62158,    1761.8186
   1930,   11286.2559,   1522.62158,    1761.8186
   1931,   11311.2539,   1522.62158,    1761.8186
   1932,    11336.251,   1522.62158,    1761.8186
   1933,    11361.248,   1522.62158,    1761.8186
   1934,   11386.2451,   1522.62158,    1761.8186
   1935,   11411.2422,   1522.62158,    1761.8186
   1936,   11436.2393,   1522.62158,    1761.8186
   1937,   11461.2373,   1522.62158,    1761.8186
   1938,   11486.2344,   1522.62158,    1761.8186
   1939,   11511.2314,   1522.62158,    1761.8186
   1940,   11536.2285,   1522.62158,    1761.8186
   1941,   11561.2256,   1522.62158,    1761.8186
   1942,   11586.2227,   1522.62158,    1761.8186
   1943,   11611.2207,   1522.62158,    1761.8186
   1944,   11636.2178,   1522.62158,    1761.8186
   1945,   11661.2148,   1522.62158,    1761.8186
   1946,   11686.2119,   1522.62158,    1761.8186
   1947,    11711.209,   1522.62158,    1761.8186
   1948,    11736.207,   1522.62158,    1761.8186
   1949,   11761.2041,   1522.62158,    1761.8186
   1950,   11786.2012,   1522.62158,    1761.8186
   1951,   11811.1982,   1522.62158,    1761.8186
   1952,   11836.1953,   1522.62158,    1761.8186
   1953,   11861.1924,   1522.62158,    1761.8186
   1954,   11886.1904,   1522.62158,    1761.8186
   1955,   11911.1875,   1522.62158,    1761.8186
   1956,   11936.1846,   1522.62158,    1761.8186
   1957,   10336.3613,   1522.62158,    1761.8186
   1958,   10361.3584,   1522.62158,    1761.8186
   1959,   10386.3555,   1522.62158,    1761.8186
   1960,   10411.3525,   1522.62158,    1761.8186
   1961,   10436.3496,   1522.62158,    1761.8186
   1962,   10461.3467,   1522.62158,    1761.8186
   1963,   10486.3447,   1522.62158,    1761.8186
   1964,   10511.3418,   1522.62158,    1761.8186
   1965,   10536.3389,   1522.62158,    1761.8186
   1966,   10561.3359,   1522.62158,    1761.8186
   1967,    10586.333,   1522.62158,    1761.8186
   1968,   10611.3311,   1522.62158,    1761.8186
   1969,   10636.3281,   1522.62158,    1761.8186
   1970,   10661.3252,   1522.62158,    1761.8186
   1971,   10686.3223,   1522.62158,    1761.8186
   1972,   10711.3193,   1522.62158,    1761.8186
   1973,   10736.3164,   1522.62158,    1761.8186
   1974,   10761.3145,   1522.62158,    1761.8186
   1975,   10786.3115,   1522.62158,    1761.8186
   1976,   10811.3086,   1522.62158,    1761.8186
   1977,   10836.3057,   1522.62158,    1761.8186
   1978,   10861.3027,   1522.62158,    1761.8186
   1979,   10886.2998,   1522.62158,    1761.8186
   1980,   10911.2979,   1522.62158,    1761.8186
   1981,   10936.2949,   1522.62158,    1761.8186
   1982,    10961.292,   1522.62158,    1761.8186
   1983,   10986.2891,   1522.62158,    1761.8186
   1984,   11011.2861,   1522.62158,    1761.8186
   1985,   11036.2842,   1522.62158,    1761.8186
   1986,   11061.2812,   1522.62158,    1761.8186
   1987,   11086.2783,   1522.62158,    1761.8186
   1988,   11111.2754,   1522.62158,    1761.8186
   1989,   9511.45215,   1522.62158,    1761.8186
   1990,   9536.44922,   1522.62158,    1761.8186
   1991,   9561.44629,   1522.62158,    1761.8186
   1992,   9586.44336,   1522.62158,    1761.8186
   1993,   9611.44043,   1522.62158,    1761.8186
   1994,   9636.43848,   1522.62158,    1761.8186
   1995,   9661.43555,   1522.62158,    1761.8186
   1996,   9686.43262,   1522.62158,    1761.8186
   1997,   9711.42969,   1522.62158,    1761.8186
   1998,   9736.42676,   1522.62158,    1761.8186
   1999,   9761.42383,   1522.62158,    1761.8186
   2000,   9786.42188,   1522.62158,    1761.8186
   2001,   9811.41895,   1522.62158,    1761.8186
   2002,   9836.41602,   1522.62158,    1761.8186
   2003,   9861.41309,   1522.62158,    1761.8186
   2004,   9886.41016,   1522.62158,    1761.8186
   2005,   9911.40723,   1522.62158,    1761.8186
   2006,   9936.40527,   1522.62158,    1761.8186
   2007,   9961.40234,   1522.62158,    1761.8186
   2008,   9986.39941,   1522.62158,    1761.8186
   2009,   10011.3965,   1522.62158,    1761.8186
   2010,   10036.3936,   1522.62158,    1761.8186
   2011,   10061.3916,   1522.62158,    1761.8186
   2012,   10086.3887,   1522.62158,    1761.8186
   2013,   10111.3857,   1522.62158,    1761.8186
   2014,   10136.3828,   1522.62158,    1761.8186
   2015,   10161.3799,   1522.62158,    1761.8186
   2016,    10186.377,   1522.62158,    1761.8186
   2017,    10211.375,   1522.62158,    1761.8186
   2018,   10236.3721,   1522.62158,    1761.8186
   2019,   10261.3691,   1522.62158,    1761.8186
   2020,   10286.3662,   1522.62158,    1761.8186
   2021,   9099.77832,   1522.62158,    1761.8186
   2022,   9125.55664,   1522.62158,    1761.8186
   2023,   9151.33496,   1522.62158,    1761.8186
   2024,   9177.11328,   1522.62158,    1761.8186
   2025,    9202.8916,   1522.62158,    1761.8186
   2026,    9228.6709,   1522.62158,    1761.8186
   2027,   9254.44922,   1522.62158,    1761.8186
   2028,   9280.22754,   1522.62158,    1761.8186
   2029,   9306.00586,   1522.62158,    1761.8186
   2030,   9331.78418,   1522.62158,    1761.8186
   2031,    9357.5625,   1522.62158,    1761.8186
   2032,   9383.34082,   1522.62158,    1761.8186
   2033,   9409.11914,   1522.62158,    1761.8186
   2034,   9434.89746,   1522.62158,    1761.8186
   2035,   9460.67578,   1522.62158,    1761.8186
   2036,   8687.32422,   1522.62158,    1761.8186
   2037,   8713.10254,   1522.62158,    1761.8186
   2038,   8738.88086,   1522.62158,    1761.8186
   2039,   8764.65918,   1522.62158,    1761.8186
   2040,    8790.4375,   1522.62158,    1761.8186
   2041,   8816.21582,   1522.62158,    1761.8186
   2042,   8841.99414,   1522.62158,    1761.8186
   2043,   8867.77246,   1522.62158,    1761.8186
   2044,   8893.55078,   1522.62158,    1761.8186
   2045,    8919.3291,   1522.62158,    1761.8186
   2046,    8945.1084,   1522.62158,    1761.8186
   2047,   8970.88672,   1522.62158,    1761.8186
   2048,   8996.66504,   1522.62158,    1761.8186
   2049,   9022.44336,   1522.62158,    1761.8186
   2050,   9048.22168,   1522.62158,    1761.8186
   2051,   7861.63379,   1522.62158,    1761.8186
   2052,   7886.63086,   1522.62158,    1761.8186
   2053,   7911.62793,   1522.62158,    1761.8186
   2054,   7936.62549,   1522.62158,    1761.8186
   2055,   7961.62256,   1522.62158,    1761.8186
   2056,   7986.61963,   1522.62158,    1761.8186
   2057,   8011.61719,   1522.62158,    1761.8186
   2058,   8036.61426,   1522.62158,    1761.8186
   2059,   8061.61133,   1522.62158,    1761.8186
   2060,   8086.60889,   1522.62158,    1761.8186
   2061,   8111.60596,   1522.62158,    1761.8186
   2062,   8136.60352,   1522.62158,    1761.8186
   2063,   8161.60059,   1522.62158,    1761.8186
   2064,   8186.59766,   1522.62158,    1761.8186
   2065,   8211.59473,   1522.62158,    1761.8186
   2066,   8236.59277,   1522.62158,    1761.8186
   2067,   8261.58984,   1522.62158,    1761.8186
   2068,   8286.58691,   1522.62158,    1761.8186
   2069,   8311.58398,   1522.62158,    1761.8186
   2070,   8336.58105,   1522.62158,    1761.8186
   2071,   8361.57812,   1522.62158,    1761.8186
   2072,   8386.57617,   1522.62158,    1761.8186
   2073,   8411.57324,   1522.62158,    1761.8186
   2074,   8436.57031,   1522.62158,    1761.8186
   2075,   8461.56738,   1522.62158,    1761.8186
   2076,   8486.56445,   1522.62158,    1761.8186
   2077,   8511.56152,   1522.62158,    1761.8186
   2078,   8536.55957,   1522.62158,    1761.8186
   2079,   8561.55664,   1522.62158,    1761.8186
   2080,   8586.55371,   1522.62158,    1761.8186
   2081,   8611.55078,   1522.62158,    1761.8186
   2082,   8636.54785,   1522.62158,    1761.8186
   2083,   7036.72461,   1522.62158,    1761.8186
   2084,   7061.72168,   1522.62158,    1761.8186
   2085,   7086.71924,   1522.62158,    1761.8186
   2086,   7111.71631,   1522.62158,    1761.8186
   2087,   7136.71338,   1522.62158,    1761.8186
   2088,   7161.71094,   1522.62158,    1761.8186
   2089,   7186.70801,   1522.62158,    1761.8186
   2090,   7211.70508,   1522.62158,    1761.8186
   2091,   7236.70264,   1522.62158,    1761.8186
   2092,   7261.69971,   1522.62158,    1761.8186
   2093,   7286.69678,   1522.62158,    1761.8186
   2094,   7311.69434,   1522.62158,    1761.8186
   2095,   7336.69141,   1522.62158,    1761.8186
   2096,   7361.68848,   1522.62158,    1761.8186
   2097,   7386.68604,   1522.62158,    1761.8186
   2098,   7411.68311,   1522.62158,    1761.8186
   2099,   7436.68066,   1522.62158,    1761.8186
   2100,   7461.67773,   1522.62158,    1761.8186
   2101,    7486.6748,   1522.62158,    1761.8186
   2102,   7511.67236,   1522.62158,    1761.8186
   2103,   7536.66943,   1522.62158,    1761.8186
   2104,    7561.6665,   1522.62158,    1761.8186
   2105,   7586.66406,   1522.62158,    1761.8186
   2106,   7611.66113,   1522.62158,    1761.8186
   2107,    7636.6582,   1522.62158,    1761.8186
   2108,   7661.65576,   1522.62158,    1761.8186
   2109,   7686.65283,   1522.62158,    1761.8186
   2110,    7711.6499,   1522.62158,    1761.8186
   2111,   7736.64746,   1522.62158,    1761.8186
   2112,   7761.64453,   1522.62158,    1761.8186
   2113,   7786.64209,   1522.62158,    1761.8186
   2114,   7811.63916,   1522.62158,    1761.8186
   2115,   6211.81543,   1522.62158,    1761.8186
   2116,    6236.8125,   1522.62158,    1761.8186
   2117,   6261.81006,   1522.62158,    1761.8186
   2118,   6286.80713,   1522.62158,    1761.8186
   2119,    6311.8042,   1522.62158,    1761.8186
   2120,   6336.80176,   1522.62158,    1761.8186
   2121,   6361.79883,   1522.62158,    1761.8186
   2122,   6386.79639,   1522.62158,    1761.8186
   2123,   6411.79346,   1522.62158,    1761.8186
   2124,   6436.79053,   1522.62158,    1761.8186
   2125,   6461.78809,   1522.62158,    1761.8186
   2126,   6486.78516,   1522.62158,    1761.8186
   2127,   6511.78223,   1522.62158,    1761.8186
   2128,   6536.77979,   1522.62158,    1761.8186
   2129,   6561.77686,   1522.62158,    1761.8186
   2130,   6586.77393,   1522.62158,    1761.8186
   2131,   6611.77148,   1522.62158,    1761.8186
   2132,   6636.76855,   1522.62158,    1761.8186
   2133,   6661.76562,   1522.62158,    1761.8186
   2134,   6686.76318,   1522.62158,    1761.8186
   2135,   6711.76025,   1522.62158,    1761.8186
   2136,   6736.75781,   1522.62158,    1761.8186
   2137,   6761.75488,   1522.62158,    1761.8186
   2138,   6786.75195,   1522.62158,    1761.8186
   2139,   6811.74951,   1522.62158,    1761.8186
   2140,   6836.74658,   1522.62158,    1761.8186
   2141,   6861.74365,   1522.62158,    1761.8186
   2142,   6886.74121,   1522.62158,    1761.8186
   2143,   6911.73828,   1522.62158,    1761.8186
   2144,   6936.73535,   1522.62158,    1761.8186
   2145,   6961.73291,   1522.62158,    1761.8186
   2146,   6986.72998,   1522.62158,    1761.8186
   2147,   5386.90625,   1522.62158,    1761.8186
   2148,   5411.90381,   1522.62158,    1761.8186
   2149,   5436.90088,   1522.62158,    1761.8186
   2150,   5461.89795,   1522.62158,    1761.8186
   2151,   5486.89551,   1522.62158,    1761.8186
   2152,   5511.89258,   1522.62158,    1761.8186
   2153,   5536.88965,   1522.62158,    1761.8186
   2154,   5561.88721,   1522.62158,    1761.8186
   2155,   5586.88428,   1522.62158,    1761.8186
   2156,   5611.88135,   1522.62158,    1761.8186
   2157,   5636.87891,   1522.62158,    1761.8186
   2158,   5661.87598,   1522.62158,    1761.8186
   2159,   5686.87305,   1522.62158,    1761.8186
   2160,   5711.87061,   1522.62158,    1761.8186
   2161,   5736.86768,   1522.62158,    1761.8186
   2162,   5761.86523,   1522.62158,    1761.8186
   2163,    5786.8623,   1522.62158,    1761.8186
   2164,   5811.85938,   1522.62158,    1761.8186
   2165,   5836.85693,   1522.62158,    1761.8186
   2166,     5861.854,   1522.62158,    1761.8186
   2167,   5886.85107,   1522.62158,    1761.8186
   2168,   5911.84863,   1522.62158,    1761.8186
   2169,    5936.8457,   1522.62158,    1761.8186
   2170,   5961.84277,   1522.62158,    1761.8186
   2171,   5986.84033,   1522.62158,    1761.8186
   2172,    6011.8374,   1522.62158,    1761.8186
   2173,   6036.83447,   1522.62158,    1761.8186
   2174,   6061.83203,   1522.62158,    1761.8186
   2175,    6086.8291,   1522.62158,    1761.8186
   2176,   6111.82666,   1522.62158,    1761.8186
   2177,   6136.82373,   1522.62158,    1761.8186
   2178,    6161.8208,   1522.62158,    1761.8186
   2179,   4561.99707,   1522.62158,    1761.8186
   2180,   4586.99463,   1522.62158,    1761.8186
   2181,    4611.9917,   1522.62158,    1761.8186
   2182,   4636.98877,   1522.62158,    1761.8186
   2183,   4661.98633,   1522.62158,    1761.8186
   2184,    4686.9834,   1522.62158,    1761.8186
   2185,   4711.98096,   1522.62158,    1761.8186
   2186,   4736.97803,   1522.62158,    1761.8186
   2187,    4761.9751,   1522.62158,    1761.8186
   2188,   4786.97266,   1522.62158,    1761.8186
   2189,   4811.96973,   1522.62158,    1761.8186
   2190,    4836.9668,   1522.62158,    1761.8186
   2191,   4861.96436,   1522.62158,    1761.8186
   2192,   4886.96143,   1522.62158,    1761.8186
   2193,    4911.9585,   1522.62158,    1761.8186
   2194,   4936.95605,   1522.62158,    1761.8186
   2195,   4961.95312,   1522.62158,    1761.8186
   2196,    4986.9502,   1522.62158,    1761.8186
   2197,   5011.94775,   1522.62158,    1761.8186
   2198,   5036.94482,   1522.62158,    1761.8186
   2199,   5061.94238,   1522.62158,    1761.8186
   2200,   5086.93945,   1522.62158,    1761.8186
   2201,   5111.93652,   1522.62158,    1761.8186
   2202,   5136.93408,   1522.62158,    1761.8186
   2203,   5161.93115,   1522.62158,    1761.8186
   2204,   5186.92822,   1522.62158,    1761.8186
   2205,   5211.92578,   1522.62158,    1761.8186
   2206,   5236.92285,   1522.62158,    1761.8186
   2207,   5261.91992,   1522.62158,    1761.8186
   2208,   5286.91748,   1522.62158,    1761.8186
   2209,   5311.91455,   1522.62158,    1761.8186
   2210,   5336.91162,   1522.62158,    1761.8186
   2211,   3737.08813,   1522.62158,    1761.8186
   2212,   3762.08545,   1522.62158,    1761.8186
   2213,   3787.08276,   1522.62158,    1761.8186
   2214,   3812.07983,   1522.62158,    1761.8186
   2215,   3837.07715,   1522.62158,    1761.8186
   2216,   3862.07446,   1522.62158,    1761.8186
   2217,   3887.07153,   1522.62158,    1761.8186
   2218,   3912.06885,   1522.62158,    1761.8186
   2219,   3937.06616,   1522.62158,    1761.8186
   2220,   3962.06348,   1522.62158,    1761.8186
   2221,   3987.06055,   1522.62158,    1761.8186
   2222,   4012.05786,   1522.62158,    1761.8186
   2223,   4037.05518,   1522.62158,    1761.8186
   2224,   4062.05225,   1522.62158,    1761.8186
   2225,   4087.04956,   1522.62158,    1761.8186
   2226,   4112.04688,   1522.62158,    1761.8186
   2227,   4137.04395,   1522.62158,    1761.8186
   2228,    4162.0415,   1522.62158,    1761.8186
   2229,   4187.03857,   1522.62158,    1761.8186
   2230,   4212.03564,   1522.62158,    1761.8186
   2231,    4237.0332,   1522.62158,    1761.8186
   2232,   4262.03027,   1522.62158,    1761.8186
   2233,   4287.02734,   1522.62158,    1761.8186
   2234,    4312.0249,   1522.62158,    1761.8186
   2235,   4337.02197,   1522.62158,    1761.8186
   2236,   4362.01904,   1522.62158,    1761.8186
   2237,    4387.0166,   1522.62158,    1761.8186
   2238,   4412.01367,   1522.62158,    1761.8186
   2239,   4437.01123,   1522.62158,    1761.8186
   2240,    4462.0083,   1522.62158,    1761.8186
   2241,   4487.00537,   1522.62158,    1761.8186
   2242,   4512.00293,   1522.62158,    1761.8186
   2243,   2912.17896,   1522.62158,    1761.8186
   2244,   2937.17627,   1522.62158,    1761.8186
   2245,   2962.17358,   1522.62158,    1761.8186
   2246,    2987.1709,   1522.62158,    1761.8186
   2247,   3012.16797,   1522.62158,    1761.8186
   2248,   3037.16528,   1522.62158,    1761.8186
   2249,    3062.1626,   1522.62158,    1761.8186
   2250,   3087.15967,   1522.62158,    1761.8186
   2251,   3112.15698,   1522.62158,    1761.8186
   2252,    3137.1543,   1522.62158,    1761.8186
   2253,   3162.15161,   1522.62158,    1761.8186
   2254,   3187.14868,   1522.62158,    1761.8186
   2255,     3212.146,   1522.62158,    1761.8186
   2256,   3237.14331,   1522.62158,    1761.8186
   2257,   3262.14038,   1522.62158,    1761.8186
   2258,    3287.1377,   1522.62158,    1761.8186
   2259,   3312.13501,   1522.62158,    1761.8186
   2260,   3337.13232,   1522.62158,    1761.8186
   2261,   3362.12939,   1522.62158,    1761.8186
   2262,   3387.12671,   1522.62158,    1761.8186
   2263,   3412.12402,   1522.62158,    1761.8186
   2264,   3437.12109,   1522.62158,    1761.8186
   2265,   3462.11841,   1522.62158,    1761.8186
   2266,   3487.11572,   1522.62158,    1761.8186
   2267,   3512.11304,   1522.62158,    1761.8186
   2268,   3537.11011,   1522.62158,    1761.8186
   2269,   3562.10742,   1522.62158,    1761.8186
   2270,   3587.10474,   1522.62158,    1761.8186
   2271,   3612.10181,   1522.62158,    1761.8186
   2272,   3637.09912,   1522.62158,    1761.8186
   2273,   3662.09644,   1522.62158,    1761.8186
   2274,   3687.09375,   1522.62158,    1761.8186
   2275,   2087.27002,   1522.62158,    1761.8186
   2276,   2112.26733,   1522.62158,    1761.8186
   2277,    2137.2644,   1522.62158,    1761.8186
   2278,   2162.26172,   1522.62158,    1761.8186
   2279,   2187.25903,   1522.62158,    1761.8186
   2280,    2212.2561,   1522.62158,    1761.8186
   2281,   2237.25342,   1522.62158,    1761.8186
   2282,   2262.25073,   1522.62158,    1761.8186
   2283,   2287.24805,   1522.62158,    1761.8186
   2284,   2312.24512,   1522.62158,    1761.8186
   2285,   2337.24243,   1522.62158,    1761.8186
   2286,   2362.23975,   1522.62158,    1761.8186
   2287,   2387.23682,   1522.62158,    1761.8186
   2288,   2412.23413,   1522.62158,    1761.8186
   2289,   2437.23145,   1522.62158,    1761.8186
   2290,   2462.22876,   1522.62158,    1761.8186
   2291,   2487.22583,   1522.62158,    1761.8186
   2292,   2512.22314,   1522.62158,    1761.8186
   2293,   2537.22046,   1522.62158,    1761.8186
   2294,   2562.21753,   1522.62158,    1761.8186
   2295,   2587.21484,   1522.62158,    1761.8186
   2296,   2612.21216,   1522.62158,    1761.8186
   2297,   2637.20947,   1522.62158,    1761.8186
   2298,   2662.20654,   1522.62158,    1761.8186
   2299,   2687.20386,   1522.62158,    1761.8186
   2300,   2712.20117,   1522.62158,    1761.8186
   2301,   2737.19824,   1522.62158,    1761.8186
   2302,   2762.19556,   1522.62158,    1761.8186
   2303,   2787.19287,   1522.62158,    1761.8186
   2304,   2812.19019,   1522.62158,    1761.8186
   2305,   2837.18726,   1522.62158,    1761.8186
   2306,   2862.18457,   1522.62158,    1761.8186
   2307,   1262.36084,   1522.62158,    1761.8186
   2308,   1287.35815,   1522.62158,    1761.8186
   2309,   1312.35535,   1522.62158,    1761.8186
   2310,   1337.35266,   1522.62158,    1761.8186
   2311,   1362.34985,   1522.62158,    1761.8186
   2312,   1387.34717,   1522.62158,    1761.8186
   2313,   1412.34436,   1522.62158,    1761.8186
   2314,   1437.34155,   1522.62158,    1761.8186
   2315,   1462.33887,   1522.62158,    1761.8186
   2316,   1487.33606,   1522.62158,    1761.8186
   2317,   1512.33337,   1522.62158,    1761.8186
   2318,   1537.33057,   1522.62158,    1761.8186
   2319,   1562.32788,   1522.62158,    1761.8186
   2320,   1587.32507,   1522.62158,    1761.8186
   2321,   1612.32227,   1522.62158,    1761.8186
   2322,   1637.31958,   1522.62158,    1761.8186
   2323,   1662.31677,   1522.62158,    1761.8186
   2324,   1687.31409,   1522.62158,    1761.8186
   2325,   1712.31128,   1522.62158,    1761.8186
   2326,   1737.30859,   1522.62158,    1761.8186
   2327,   1762.30579,   1522.62158,    1761.8186
   2328,   1787.30298,   1522.62158,    1761.8186
   2329,   1812.30029,   1522.62158,    1761.8186
   2330,   1837.29749,   1522.62158,    1761.8186
   2331,    1862.2948,   1522.62158,    1761.8186
   2332,   1887.29199,   1522.62158,    1761.8186
   2333,   1912.28931,   1522.62158,    1761.8186
   2334,    1937.2865,   1522.62158,    1761.8186
   2335,   1962.28369,   1522.62158,    1761.8186
   2336,   1987.28101,   1522.62158,    1761.8186
   2337,    2012.2782,   1522.62158,    1761.8186
   2338,   2037.27551,   1522.62158,    1761.8186
   2339,   437.451782,   1522.62158,    1761.8186
   2340,   462.449036,   1522.62158,    1761.8186
   2341,   487.446289,   1522.62158,    1761.8186
   2342,   512.443542,   1522.62158,    1761.8186
   2343,   537.440796,   1522.62158,    1761.8186
   2344,   562.437988,   1522.62158,    1761.8186
   2345,   587.435242,   1522.62158,    1761.8186
   2346,   612.432495,   1522.62158,    1761.8186
   2347,   637.429749,   1522.62158,    1761.8186
   2348,   662.427002,   1522.62158,    1761.8186
   2349,   687.424255,   1522.62158,    1761.8186
   2350,   712.421509,   1522.62158,    1761.8186
   2351,   737.418762,   1522.62158,    1761.8186
   2352,   762.415955,   1522.62158,    1761.8186
   2353,   787.413208,   1522.62158,    1761.8186
   2354,   812.410461,   1522.62158,    1761.8186
   2355,   837.407715,   1522.62158,    1761.8186
   2356,   862.404968,   1522.62158,    1761.8186
   2357,   887.402222,   1522.62158,    1761.8186
   2358,   912.399475,   1522.62158,    1761.8186
   2359,   937.396667,   1522.62158,    1761.8186
   2360,   962.393921,   1522.62158,    1761.8186
   2361,   987.391174,   1522.62158,    1761.8186
   2362,   1012.38843,   1522.62158,    1761.8186
   2363,   1037.38562,   1522.62158,    1761.8186
   2364,   1062.38293,   1522.62158,    1761.8186
   2365,   1087.38013,   1522.62158,    1761.8186
   2366,   1112.37744,   1522.62158,    1761.8186
   2367,   1137.37463,   1522.62158,    1761.8186
   2368,   1162.37195,   1522.62158,    1761.8186
   2369,   1187.36914,   1522.62158,    1761.8186
   2370,   1212.36633,   1522.62158,    1761.8186
   2371,     25.77841,   1522.62158,    1761.8186
   2372,   51.5568199,   1522.62158,    1761.8186
   2373,    77.335228,   1522.62158,    1761.8186
   2374,    103.11364,   1522.62158,    1761.8186
   2375,   128.892044,   1522.62158,    1761.8186
   2376,   154.670456,   1522.62158,    1761.8186
   2377,   180.448868,   1522.62158,    1761.8186
   2378,    206.22728,   1522.62158,    1761.8186
   2379,   232.005676,   1522.62158,    1761.8186
   2380,   257.784088,   1522.62158,    1761.8186
   2381,     283.5625,   1522.62158,    1761.8186
   2382,   309.340912,   1522.62158,    1761.8186
   2383,   335.119324,   1522.62158,    1761.8186
   2384,   360.897736,   1522.62158,    1761.8186
   2385,   386.676147,   1522.62158,    1761.8186
   2386,   17761.3242,   611.738403,    1337.1814
   2387,   17787.1016,   611.738403,    1337.1814
   2388,   17812.8809,   611.738403,    1337.1814
   2389,   17838.6582,   611.738403,    1337.1814
   2390,   17864.4375,   611.738403,    1337.1814
   2391,   17890.2168,   611.738403,    1337.1814
   2392,   17915.9941,   611.738403,    1337.1814
   2393,   17941.7734,   611.738403,    1337.1814
   2394,   17967.5508,   611.738403,    1337.1814
   2395,   17993.3301,   611.738403,    1337.1814
   2396,   18019.1074,   611.738403,    1337.1814
   2397,   18044.8867,   611.738403,    1337.1814
   2398,   18070.6641,   611.738403,    1337.1814
   2399,   18096.4434,   611.738403,    1337.1814
   2400,   18122.2207,   611.738403,    1337.1814
   2401,   16935.6328,   611.738403,    1337.1814
   2402,   16960.6309,   611.738403,    1337.1814
   2403,   16985.6289,   611.738403,    1337.1814
   2404,    17010.625,   611.738403,    1337.1814
   2405,    17035.623,   611.738403,    1337.1814
   2406,   17060.6191,   611.738403,    1337.1814
   2407,   17085.6172,   611.738403,    1337.1814
   2408,   17110.6152,   611.738403,    1337.1814
   2409,   17135.6113,   611.738403,    1337.1814
   2410,   17160.6094,   611.738403,    1337.1814
   2411,   17185.6055,   611.738403,    1337.1814
   2412,   17210.6035,   611.738403,    1337.1814
   2413,   17235.5996,   611.738403,    1337.1814
   2414,   17260.5977,   611.738403,    1337.1814
   2415,   17285.5957,   611.738403,    1337.1814
   2416,   17310.5918,   611.738403,    1337.1814
   2417,   17335.5898,   611.738403,    1337.1814
   2418,   17360.5859,   611.738403,    1337.1814
   2419,    17385.584,   611.738403,    1337.1814
   2420,    17410.582,   611.738403,    1337.1814
   2421,   17435.5781,   611.738403,    1337.1814
   2422,   17460.5762,   611.738403,    1337.1814
   2423,   17485.5723,   611.738403,    1337.1814
   2424,   17510.5703,   611.738403,    1337.1814
   2425,   17535.5684,   611.738403,    1337.1814
   2426,   17560.5645,   611.738403,    1337.1814
   2427,   17585.5625,   611.738403,    1337.1814
   2428,   17610.5586,   611.738403,    1337.1814
   2429,   17635.5566,   611.738403,    1337.1814
   2430,   17660.5547,   611.738403,    1337.1814
   2431,   17685.5508,   611.738403,    1337.1814
   2432,   17710.5488,   611.738403,    1337.1814
   2433,   16110.7246,   611.738403,    1337.1814
   2434,   16135.7217,   611.738403,    1337.1814
   2435,   16160.7188,   611.738403,    1337.1814
   2436,   16185.7158,   611.738403,    1337.1814
   2437,   16210.7139,   611.738403,    1337.1814
   2438,   16235.7109,   611.738403,    1337.1814
   2439,    16260.708,   611.738403,    1337.1814
   2440,   16285.7051,   611.738403,    1337.1814
   2441,   16310.7021,   611.738403,    1337.1814
   2442,   16335.7002,   611.738403,    1337.1814
   2443,   16360.6973,   611.738403,    1337.1814
   2444,   16385.6934,   611.738403,    1337.1814
   2445,   16410.6914,   611.738403,    1337.1814
   2446,   16435.6895,   611.738403,    1337.1814
   2447,   16460.6855,   611.738403,    1337.1814
   2448,   16485.6836,   611.738403,    1337.1814
   2449,   16510.6797,   611.738403,    1337.1814
   2450,   16535.6777,   611.738403,    1337.1814
   2451,   16560.6758,   611.738403,    1337.1814
   2452,   16585.6719,   611.738403,    1337.1814
   2453,   16610.6699,   611.738403,    1337.1814
   2454,    16635.666,   611.738403,    1337.1814
   2455,   16660.6641,   611.738403,    1337.1814
   2456,   16685.6621,   611.738403,    1337.1814
   2457,   16710.6582,   611.738403,    1337.1814
   2458,   16735.6562,   611.738403,    1337.1814
   2459,   16760.6523,   611.738403,    1337.1814
   2460,   16785.6504,   611.738403,    1337.1814
   2461,   16810.6465,   611.738403,    1337.1814
   2462,   16835.6445,   611.738403,    1337.1814
   2463,   16860.6426,   611.738403,    1337.1814
   2464,   16885.6387,   611.738403,    1337.1814
   2465,   15285.8154,   611.738403,    1337.1814
   2466,   15310.8125,   611.738403,    1337.1814
   2467,   15335.8096,   611.738403,    1337.1814
   2468,   15360.8076,   611.738403,    1337.1814
   2469,   15385.8047,   611.738403,    1337.1814
   2470,   15410.8018,   611.738403,    1337.1814
   2471,   15435.7988,   611.738403,    1337.1814
   2472,   15460.7959,   611.738403,    1337.1814
   2473,    15485.793,   611.738403,    1337.1814
   2474,    15510.791,   611.738403,    1337.1814
   2475,   15535.7881,   611.738403,    1337.1814
   2476,   15560.7852,   611.738403,    1337.1814
   2477,   15585.7822,   611.738403,    1337.1814
   2478,   15610.7793,   611.738403,    1337.1814
   2479,   15635.7773,   611.738403,    1337.1814
   2480,   15660.7744,   611.738403,    1337.1814
   2481,   15685.7715,   611.738403,    1337.1814
   2482,   15710.7686,   611.738403,    1337.1814
   2483,   15735.7656,   611.738403,    1337.1814
   2484,   15760.7627,   611.738403,    1337.1814
   2485,   15785.7607,   611.738403,    1337.1814
   2486,   15810.7578,   611.738403,    1337.1814
   2487,   15835.7549,   611.738403,    1337.1814
   2488,    15860.752,   611.738403,    1337.1814
   2489,    15885.749,   611.738403,    1337.1814
   2490,   15910.7461,   611.738403,    1337.1814
   2491,   15935.7441,   611.738403,    1337.1814
   2492,   15960.7412,   611.738403,    1337.1814
   2493,   15985.7383,   611.738403,    1337.1814
   2494,   16010.7354,   611.738403,    1337.1814
   2495,   16035.7324,   611.738403,    1337.1814
   2496,   16060.7305,   611.738403,    1337.1814
   2497,   14460.9062,   611.738403,    1337.1814
   2498,   14485.9033,   611.738403,    1337.1814
   2499,   14510.9004,   611.738403,    1337.1814
   2500,   14535.8984,   611.738403,    1337.1814
   2501,   14560.8955,   611.738403,    1337.1814
   2502,   14585.8926,   611.738403,    1337.1814
   2503,   14610.8896,   611.738403,    1337.1814
   2504,   14635.8867,   611.738403,    1337.1814
   2505,   14660.8848,   611.738403,    1337.1814
   2506,   14685.8818,   611.738403,    1337.1814
   2507,   14710.8789,   611.738403,    1337.1814
   2508,    14735.876,   611.738403,    1337.1814
   2509,    14760.873,   611.738403,    1337.1814
   2510,   14785.8701,   611.738403,    1337.1814
   2511,   14810.8682,   611.738403,    1337.1814
   2512,   14835.8652,   611.738403,    1337.1814
   2513,   14860.8623,   611.738403,    1337.1814
   2514,   14885.8594,   611.738403,    1337.1814
   2515,   14910.8564,   611.738403,    1337.1814
   2516,   14935.8535,   611.738403,    1337.1814
   2517,   14960.8516,   611.738403,    1337.1814
   2518,   14985.8486,   611.738403,    1337.1814
   2519,   15010.8457,   611.738403,    1337.1814
   2520,   15035.8428,   611.738403,    1337.1814
   2521,   15060.8398,   611.738403,    1337.1814
   2522,   15085.8379,   611.738403,    1337.1814
   2523,    15110.835,   611.738403,    1337.1814
   2524,    15135.832,   611.738403,    1337.1814
   2525,   15160.8291,   611.738403,    1337.1814
   2526,   15185.8262,   611.738403,    1337.1814
   2527,   15210.8232,   611.738403,    1337.1814
   2528,   15235.8213,   611.738403,    1337.1814
   2529,   13635.9971,   611.738403,    1337.1814
   2530,   13660.9941,   611.738403,    1337.1814
   2531,   13685.9922,   611.738403,    1337.1814
   2532,   13710.9893,   611.738403,    1337.1814
   2533,   13735.9863,   611.738403,    1337.1814
   2534,   13760.9834,   611.738403,    1337.1814
   2535,   13785.9805,   611.738403,    1337.1814
   2536,   13810.9775,   611.738403,    1337.1814
   2537,   13835.9756,   611.738403,    1337.1814
   2538,   13860.9727,   611.738403,    1337.1814
   2539,   13885.9697,   611.738403,    1337.1814
   2540,   13910.9668,   611.738403,    1337.1814
   2541,   13935.9639,   611.738403,    1337.1814
   2542,   13960.9619,   611.738403,    1337.1814
   2543,    13985.959,   611.738403,    1337.1814
   2544,   14010.9561,   611.738403,    1337.1814
   2545,   14035.9531,   611.738403,    1337.1814
   2546,   14060.9502,   611.738403,    1337.1814
   2547,   14085.9473,   611.738403,    1337.1814
   2548,   14110.9453,   611.738403,    1337.1814
   2549,   14135.9424,   611.738403,    1337.1814
   2550,   14160.9395,   611.738403,    1337.1814
   2551,   14185.9365,   611.738403,    1337.1814
   2552,   14210.9336,   611.738403,    1337.1814
   2553,   14235.9307,   611.738403,    1337.1814
   2554,   14260.9287,   611.738403,    1337.1814
   2555,   14285.9258,   611.738403,    1337.1814
   2556,   14310.9229,   611.738403,    1337.1814
   2557,   14335.9199,   611.738403,    1337.1814
   2558,    14360.917,   611.738403,    1337.1814
   2559,    14385.915,   611.738403,    1337.1814
   2560,   14410.9121,   611.738403,    1337.1814
   2561,   12811.0879,   611.738403,    1337.1814
   2562,    12836.085,   611.738403,    1337.1814
   2563,    12861.083,   611.738403,    1337.1814
   2564,   12886.0801,   611.738403,    1337.1814
   2565,   12911.0771,   611.738403,    1337.1814
   2566,   12936.0742,   611.738403,    1337.1814
   2567,   12961.0713,   611.738403,    1337.1814
   2568,   12986.0693,   611.738403,    1337.1814
   2569,   13011.0664,   611.738403,    1337.1814
   2570,   13036.0635,   611.738403,    1337.1814
   2571,   13061.0605,   611.738403,    1337.1814
   2572,   13086.0576,   611.738403,    1337.1814
   2573,   13111.0547,   611.738403,    1337.1814
   2574,   13136.0527,   611.738403,    1337.1814
   2575,   13161.0498,   611.738403,    1337.1814
   2576,   13186.0469,   611.738403,    1337.1814
   2577,   13211.0439,   611.738403,    1337.1814
   2578,    13236.041,   611.738403,    1337.1814
   2579,   13261.0381,   611.738403,    1337.1814
   2580,   13286.0361,   611.738403,    1337.1814
   2581,   13311.0332,   611.738403,    1337.1814
   2582,   13336.0303,   611.738403,    1337.1814
   2583,   13361.0273,   611.738403,    1337.1814
   2584,   13386.0244,   611.738403,    1337.1814
   2585,   13411.0225,   611.738403,    1337.1814
   2586,   13436.0195,   611.738403,    1337.1814
   2587,   13461.0166,   611.738403,    1337.1814
   2588,   13486.0137,   611.738403,    1337.1814
   2589,   13511.0107,   611.738403,    1337.1814
   2590,   13536.0078,   611.738403,    1337.1814
   2591,   13561.0059,   611.738403,    1337.1814
   2592,   13586.0029,   611.738403,    1337.1814
   2593,   11986.1787,   611.738403,    1337.1814
   2594,   12011.1768,   611.738403,    1337.1814
   2595,   12036.1738,   611.738403,    1337.1814
   2596,   12061.1709,   611.738403,    1337.1814
   2597,    12086.168,   611.738403,    1337.1814
   2598,    12111.165,   611.738403,    1337.1814
   2599,   12136.1621,   611.738403,    1337.1814
   2600,   12161.1602,   611.738403,    1337.1814
   2601,   12186.1572,   611.738403,    1337.1814
   2602,   12211.1543,   611.738403,    1337.1814
   2603,   12236.1514,   611.738403,    1337.1814
   2604,   12261.1484,   611.738403,    1337.1814
   2605,   12286.1465,   611.738403,    1337.1814
   2606,   12311.1436,   611.738403,    1337.1814
   2607,   12336.1406,   611.738403,    1337.1814
   2608,   12361.1377,   611.738403,    1337.1814
   2609,   12386.1348,   611.738403,    1337.1814
   2610,   12411.1318,   611.738403,    1337.1814
   2611,   12436.1299,   611.738403,    1337.1814
   2612,    12461.127,   611.738403,    1337.1814
   2613,    12486.124,   611.738403,    1337.1814
   2614,   12511.1211,   611.738403,    1337.1814
   2615,   12536.1182,   611.738403,    1337.1814
   2616,   12561.1152,   611.738403,    1337.1814
   2617,   12586.1133,   611.738403,    1337.1814
   2618,   12611.1104,   611.738403,    1337.1814
   2619,   12636.1074,   611.738403,    1337.1814
   2620,   12661.1045,   611.738403,    1337.1814
   2621,   12686.1016,   611.738403,    1337.1814
   2622,   12711.0996,   611.738403,    1337.1814
   2623,   12736.0967,   611.738403,    1337.1814
   2624,   12761.0938,   611.738403,    1337.1814
   2625,   11161.2695,   611.738403,    1337.1814
   2626,   11186.2676,   611.738403,    1337.1814
   2627,   11211.2646,   611.738403,    1337.1814
   2628,   11236.2617,   611.738403,    1337.1814
   2629,   11261.2588,   611.738403,    1337.1814
   2630,   11286.2559,   611.738403,    1337.1814
   2631,   11311.2539,   611.738403,    1337.1814
   2632,    11336.251,   611.738403,    1337.1814
   2633,    11361.248,   611.738403,    1337.1814
   2634,   11386.2451,   611.738403,    1337.1814
   2635,   11411.2422,   611.738403,    1337.1814
   2636,   11436.2393,   611.738403,    1337.1814
   2637,   11461.2373,   611.738403,    1337.1814
   2638,   11486.2344,   611.738403,    1337.1814
   2639,   11511.2314,   611.738403,    1337.1814
   2640,   11536.2285,   611.738403,    1337.1814
   2641,   11561.2256,   611.738403,    1337.1814
   2642,   11586.2227,   611.738403,    1337.1814
   2643,   11611.2207,   611.738403,    1337.1814
   2644,   11636.2178,   611.738403,    1337.1814
   2645,   11661.2148,   611.738403,    1337.1814
   2646,   11686.2119,   611.738403,    1337.1814
   2647,    11711.209,   611.738403,    1337.1814
   2648,    11736.207,   611.738403,    1337.1814
   2649,   11761.2041,   611.738403,    1337.1814
   2650,   11786.2012,   611.738403,    1337.1814
   2651,   11811.1982,   611.738403,    1337.1814
   2652,   11836.1953,   611.738403,    1337.1814
   2653,   11861.1924,   611.738403,    1337.1814
   2654,   11886.1904,   611.738403,    1337.1814
   2655,   11911.1875,   611.738403,    1337.1814
   2656,   11936.1846,   611.738403,    1337.1814
   2657,   10336.3613,   611.738403,    1337.1814
   2658,   10361.3584,   611.738403,    1337.1814
   2659,   10386.3555,   611.738403,    1337.1814
   2660,   10411.3525,   611.738403,    1337.1814
   2661,   10436.3496,   611.738403,    1337.1814
   2662,   10461.3467,   611.738403,    1337.1814
   2663,   10486.3447,   611.738403,    1337.1814
   2664,   10511.3418,   611.738403,    1337.1814
   2665,   10536.3389,   611.738403,    1337.1814
   2666,   10561.3359,   611.738403,    1337.1814
   2667,    10586.333,   611.738403,    1337.1814
   2668,   10611.3311,   611.738403,    1337.1814
   2669,   10636.3281,   611.738403,    1337.1814
   2670,   10661.3252,   611.738403,    1337.1814
   2671,   10686.3223,   611.738403,    1337.1814
   2672,   10711.3193,   611.738403,    1337.1814
   2673,   10736.3164,   611.738403,    1337.1814
   2674,   10761.3145,   611.738403,    1337.1814
   2675,   10786.3115,   611.738403,    1337.1814
   2676,   10811.3086,   611.738403,    1337.1814
   2677,   10836.3057,   611.738403,    1337.1814
   2678,   10861.3027,   611.738403,    1337.1814
   2679,   10886.2998,   611.738403,    1337.1814
   2680,   10911.2979,   611.738403,    1337.1814
   2681,   10936.2949,   611.738403,    1337.1814
   2682,    10961.292,   611.738403,    1337.1814
   2683,   10986.2891,   611.738403,    1337.1814
   2684,   11011.2861,   611.738403,    1337.1814
   2685,   11036.2842,   611.738403,    1337.1814
   2686,   11061.2812,   611.738403,    1337.1814
   2687,   11086.2783,   611.738403,    1337.1814
   2688,   11111.2754,   611.738403,    1337.1814
   2689,   9511.45215,   611.738403,    1337.1814
   2690,   9536.44922,   611.738403,    1337.1814
   2691,   9561.44629,   611.738403,    1337.1814
   2692,   9586.44336,   611.738403,    1337.1814
   2693,   9611.44043,   611.738403,    1337.1814
   2694,   9636.43848,   611.738403,    1337.1814
   2695,   9661.43555,   611.738403,    1337.1814
   2696,   9686.43262,   611.738403,    1337.1814
   2697,   9711.42969,   611.738403,    1337.1814
   2698,   9736.42676,   611.738403,    1337.1814
   2699,   9761.42383,   611.738403,    1337.1814
   2700,   9786.42188,   611.738403,    1337.1814
   2701,   9811.41895,   611.738403,    1337.1814
   2702,   9836.41602,   611.738403,    1337.1814
   2703,   9861.41309,   611.738403,    1337.1814
   2704,   9886.41016,   611.738403,    1337.1814
   2705,   9911.40723,   611.738403,    1337.1814
   2706,   9936.40527,   611.738403,    1337.1814
   2707,   9961.40234,   611.738403,    1337.1814
   2708,   9986.39941,   611.738403,    1337.1814
   2709,   10011.3965,   611.738403,    1337.1814
   2710,   10036.3936,   611.738403,    1337.1814
   2711,   10061.3916,   611.738403,    1337.1814
   2712,   10086.3887,   611.738403,    1337.1814
   2713,   10111.3857,   611.738403,    1337.1814
   2714,   10136.3828,   611.738403,    1337.1814
   2715,   10161.3799,   611.738403,    1337.1814
   2716,    10186.377,   611.738403,    1337.1814
   2717,    10211.375,   611.738403,    1337.1814
   2718,   10236.3721,   611.738403,    1337.1814
   2719,   10261.3691,   611.738403,    1337.1814
   2720,   10286.3662,   611.738403,    1337.1814
   2721,   9099.77832,   611.738403,    1337.1814
   2722,   9125.55664,   611.738403,    1337.1814
   2723,   9151.33496,   611.738403,    1337.1814
   2724,   9177.11328,   611.738403,    1337.1814
   2725,    9202.8916,   611.738403,    1337.1814
   2726,    9228.6709,   611.738403,    1337.1814
   2727,   9254.44922,   611.738403,    1337.1814
   2728,   9280.22754,   611.738403,    1337.1814
   2729,   9306.00586,   611.738403,    1337.1814
   2730,   9331.78418,   611.738403,    1337.1814
   2731,    9357.5625,   611.738403,    1337.1814
   2732,   9383.34082,   611.738403,    1337.1814
   2733,   9409.11914,   611.738403,    1337.1814
   2734,   9434.89746,   611.738403,    1337.1814
   2735,   9460.67578,   611.738403,    1337.1814
   2736,   8687.32422,   611.738403,    1337.1814
   2737,   8713.10254,   611.738403,    1337.1814
   2738,   8738.88086,   611.738403,    1337.1814
   2739,   8764.65918,   611.738403,    1337.1814
   2740,    8790.4375,   611.738403,    1337.1814
   2741,   8816.21582,   611.738403,    1337.1814
   2742,   8841.99414,   611.738403,    1337.1814
   2743,   8867.77246,   611.738403,    1337.1814
   2744,   8893.55078,   611.738403,    1337.1814
   2745,    8919.3291,   611.738403,    1337.1814
   2746,    8945.1084,   611.738403,    1337.1814
   2747,   8970.88672,   611.738403,    1337.1814
   2748,   8996.66504,   611.738403,    1337.1814
   2749,   9022.44336,   611.738403,    1337.1814
   2750,   9048.22168,   611.738403,    1337.1814
   2751,   7861.63379,   611.738403,    1337.1814
   2752,   7886.63086,   611.738403,    1337.1814
   2753,   7911.62793,   611.738403,    1337.1814
   2754,   7936.62549,   611.738403,    1337.1814
   2755,   7961.62256,   611.738403,    1337.1814
   2756,   7986.61963,   611.738403,    1337.1814
   2757,   8011.61719,   611.738403,    1337.1814
   2758,   8036.61426,   611.738403,    1337.1814
   2759,   8061.61133,   611.738403,    1337.1814
   2760,   8086.60889,   611.738403,    1337.1814
   2761,   8111.60596,   611.738403,    1337.1814
   2762,   8136.60352,   611.738403,    1337.1814
   2763,   8161.60059,   611.738403,    1337.1814
   2764,   8186.59766,   611.738403,    1337.1814
   2765,   8211.59473,   611.738403,    1337.1814
   2766,   8236.59277,   611.738403,    1337.1814
   2767,   8261.58984,   611.738403,    1337.1814
   2768,   8286.58691,   611.738403,    1337.1814
   2769,   8311.58398,   611.738403,    1337.1814
   2770,   8336.58105,   611.738403,    1337.1814
   2771,   8361.57812,   611.738403,    1337.1814
   2772,   8386.57617,   611.738403,    1337.1814
   2773,   8411.57324,   611.738403,    1337.1814
   2774,   8436.57031,   611.738403,    1337.1814
   2775,   8461.56738,   611.738403,    1337.1814
   2776,   8486.56445,   611.738403,    1337.1814
   2777,   8511.56152,   611.738403,    1337.1814
   2778,   8536.55957,   611.738403,    1337.1814
   2779,   8561.55664,   611.738403,    1337.1814
   2780,   8586.55371,   611.738403,    1337.1814
   2781,   8611.55078,   611.738403,    1337.1814
   2782,   8636.54785,   611.738403,    1337.1814
   2783,   7036.72461,   611.738403,    1337.1814
   2784,   7061.72168,   611.738403,    1337.1814
   2785,   7086.71924,   611.738403,    1337.1814
   2786,   7111.71631,   611.738403,    1337.1814
   2787,   7136.71338,   611.738403,    1337.1814
   2788,   7161.71094,   611.738403,    1337.1814
   2789,   7186.70801,   611.738403,    1337.1814
   2790,   7211.70508,   611.738403,    1337.1814
   2791,   7236.70264,   611.738403,    1337.1814
   2792,   7261.69971,   611.738403,    1337.1814
   2793,   7286.69678,   611.738403,    1337.1814
   2794,   7311.69434,   611.738403,    1337.1814
   2795,   7336.69141,   611.738403,    1337.1814
   2796,   7361.68848,   611.738403,    1337.1814
   2797,   7386.68604,   611.738403,    1337.1814
   2798,   7411.68311,   611.738403,    1337.1814
   2799,   7436.68066,   611.738403,    1337.1814
   2800,   7461.67773,   611.738403,    1337.1814
   2801,    7486.6748,   611.738403,    1337.1814
   2802,   7511.67236,   611.738403,    1337.1814
   2803,   7536.66943,   611.738403,    1337.1814
   2804,    7561.6665,   611.738403,    1337.1814
   2805,   7586.66406,   611.738403,    1337.1814
   2806,   7611.66113,   611.738403,    1337.1814
   2807,    7636.6582,   611.738403,    1337.1814
   2808,   7661.65576,   611.738403,    1337.1814
   2809,   7686.65283,   611.738403,    1337.1814
   2810,    7711.6499,   611.738403,    1337.1814
   2811,   7736.64746,   611.738403,    1337.1814
   2812,   7761.64453,   611.738403,    1337.1814
   2813,   7786.64209,   611.738403,    1337.1814
   2814,   7811.63916,   611.738403,    1337.1814
   2815,   6211.81543,   611.738403,    1337.1814
   2816,    6236.8125,   611.738403,    1337.1814
   2817,   6261.81006,   611.738403,    1337.1814
   2818,   6286.80713,   611.738403,    1337.1814
   2819,    6311.8042,   611.738403,    1337.1814
   2820,   6336.80176,   611.738403,    1337.1814
   2821,   6361.79883,   611.738403,    1337.1814
   2822,   6386.79639,   611.738403,    1337.1814
   2823,   6411.79346,   611.738403,    1337.1814
   2824,   6436.79053,   611.738403,    1337.1814
   2825,   6461.78809,   611.738403,    1337.1814
   2826,   6486.78516,   611.738403,    1337.1814
   2827,   6511.78223,   611.738403,    1337.1814
   2828,   6536.77979,   611.738403,    1337.1814
   2829,   6561.77686,   611.738403,    1337.1814
   2830,   6586.77393,   611.738403,    1337.1814
   2831,   6611.77148,   611.738403,    1337.1814
   2832,   6636.76855,   611.738403,    1337.1814
   2833,   6661.76562,   611.738403,    1337.1814
   2834,   6686.76318,   611.738403,    1337.1814
   2835,   6711.76025,   611.738403,    1337.1814
   2836,   6736.75781,   611.738403,    1337.1814
   2837,   6761.75488,   611.738403,    1337.1814
   2838,   6786.75195,   611.738403,    1337.1814
   2839,   6811.74951,   611.738403,    1337.1814
   2840,   6836.74658,   611.738403,    1337.1814
   2841,   6861.74365,   611.738403,    1337.1814
   2842,   6886.74121,   611.738403,    1337.1814
   2843,   6911.73828,   611.738403,    1337.1814
   2844,   6936.73535,   611.738403,    1337.1814
   2845,   6961.73291,   611.738403,    1337.1814
   2846,   6986.72998,   611.738403,    1337.1814
   2847,   5386.90625,   611.738403,    1337.1814
   2848,   5411.90381,   611.738403,    1337.1814
   2849,   5436.90088,   611.738403,    1337.1814
   2850,   5461.89795,   611.738403,    1337.1814
   2851,   5486.89551,   611.738403,    1337.1814
   2852,   5511.89258,   611.738403,    1337.1814
   2853,   5536.88965,   611.738403,    1337.1814
   2854,   5561.88721,   611.738403,    1337.1814
   2855,   5586.88428,   611.738403,    1337.1814
   2856,   5611.88135,   611.738403,    1337.1814
   2857,   5636.87891,   611.738403,    1337.1814
   2858,   5661.87598,   611.738403,    1337.1814
   2859,   5686.87305,   611.738403,    1337.1814
   2860,   5711.87061,   611.738403,    1337.1814
   2861,   5736.86768,   611.738403,    1337.1814
   2862,   5761.86523,   611.738403,    1337.1814
   2863,    5786.8623,   611.738403,    1337.1814
   2864,   5811.85938,   611.738403,    1337.1814
   2865,   5836.85693,   611.738403,    1337.1814
   2866,     5861.854,   611.738403,    1337.1814
   2867,   5886.85107,   611.738403,    1337.1814
   2868,   5911.84863,   611.738403,    1337.1814
   2869,    5936.8457,   611.738403,    1337.1814
   2870,   5961.84277,   611.738403,    1337.1814
   2871,   5986.84033,   611.738403,    1337.1814
   2872,    6011.8374,   611.738403,    1337.1814
   2873,   6036.83447,   611.738403,    1337.1814
   2874,   6061.83203,   611.738403,    1337.1814
   2875,    6086.8291,   611.738403,    1337.1814
   2876,   6111.82666,   611.738403,    1337.1814
   2877,   6136.82373,   611.738403,    1337.1814
   2878,    6161.8208,   611.738403,    1337.1814
   2879,   4561.99707,   611.738403,    1337.1814
   2880,   4586.99463,   611.738403,    1337.1814
   2881,    4611.9917,   611.738403,    1337.1814
   2882,   4636.98877,   611.738403,    1337.1814
   2883,   4661.98633,   611.738403,    1337.1814
   2884,    4686.9834,   611.738403,    1337.1814
   2885,   4711.98096,   611.738403,    1337.1814
   2886,   4736.97803,   611.738403,    1337.1814
   2887,    4761.9751,   611.738403,    1337.1814
   2888,   4786.97266,   611.738403,    1337.1814
   2889,   4811.96973,   611.738403,    1337.1814
   2890,    4836.9668,   611.738403,    1337.1814
   2891,   4861.96436,   611.738403,    1337.1814
   2892,   4886.96143,   611.738403,    1337.1814
   2893,    4911.9585,   611.738403,    1337.1814
   2894,   4936.95605,   611.738403,    1337.1814
   2895,   4961.95312,   611.738403,    1337.1814
   2896,    4986.9502,   611.738403,    1337.1814
   2897,   5011.94775,   611.738403,    1337.1814
   2898,   5036.94482,   611.738403,    1337.1814
   2899,   5061.94238,   611.738403,    1337.1814
   2900,   5086.93945,   611.738403,    1337.1814
   2901,   5111.93652,   611.738403,    1337.1814
   2902,   5136.93408,   611.738403,    1337.1814
   2903,   5161.93115,   611.738403,    1337.1814
   2904,   5186.92822,   611.738403,    1337.1814
   2905,   5211.92578,   611.738403,    1337.1814
   2906,   5236.92285,   611.738403,    1337.1814
   2907,   5261.91992,   611.738403,    1337.1814
   2908,   5286.91748,   611.738403,    1337.1814
   2909,   5311.91455,   611.738403,    1337.1814
   2910,   5336.91162,   611.738403,    1337.1814
   2911,   3737.08813,   611.738403,    1337.1814
   2912,   3762.08545,   611.738403,    1337.1814
   2913,   3787.08276,   611.738403,    1337.1814
   2914,   3812.07983,   611.738403,    1337.1814
   2915,   3837.07715,   611.738403,    1337.1814
   2916,   3862.07446,   611.738403,    1337.1814
   2917,   3887.07153,   611.738403,    1337.1814
   2918,   3912.06885,   611.738403,    1337.1814
   2919,   3937.06616,   611.738403,    1337.1814
   2920,   3962.06348,   611.738403,    1337.1814
   2921,   3987.06055,   611.738403,    1337.1814
   2922,   4012.05786,   611.738403,    1337.1814
   2923,   4037.05518,   611.738403,    1337.1814
   2924,   4062.05225,   611.738403,    1337.1814
   2925,   4087.04956,   611.738403,    1337.1814
   2926,   4112.04688,   611.738403,    1337.1814
   2927,   4137.04395,   611.738403,    1337.1814
   2928,    4162.0415,   611.738403,    1337.1814
   2929,   4187.03857,   611.738403,    1337.1814
   2930,   4212.03564,   611.738403,    1337.1814
   2931,    4237.0332,   611.738403,    1337.1814
   2932,   4262.03027,   611.738403,    1337.1814
   2933,   4287.02734,   611.738403,    1337.1814
   2934,    4312.0249,   611.738403,    1337.1814
   2935,   4337.02197,   611.738403,    1337.1814
   2936,   4362.01904,   611.738403,    1337.1814
   2937,    4387.0166,   611.738403,    1337.1814
   2938,   4412.01367,   611.738403,    1337.1814
   2939,   4437.01123,   611.738403,    1337.1814
   2940,    4462.0083,   611.738403,    1337.1814
   2941,   4487.00537,   611.738403,    1337.1814
   2942,   4512.00293,   611.738403,    1337.1814
   2943,   2912.17896,   611.738403,    1337.1814
   2944,   2937.17627,   611.738403,    1337.1814
   2945,   2962.17358,   611.738403,    1337.1814
   2946,    2987.1709,   611.738403,    1337.1814
   2947,   3012.16797,   611.738403,    1337.1814
   2948,   3037.16528,   611.738403,    1337.1814
   2949,    3062.1626,   611.738403,    1337.1814
   2950,   3087.15967,   611.738403,    1337.1814
   2951,   3112.15698,   611.738403,    1337.1814
   2952,    3137.1543,   611.738403,    1337.1814
   2953,   3162.15161,   611.738403,    1337.1814
   2954,   3187.14868,   611.738403,    1337.1814
   2955,     3212.146,   611.738403,    1337.1814
   2956,   3237.14331,   611.738403,    1337.1814
   2957,   3262.14038,   611.738403,    1337.1814
   2958,    3287.1377,   611.738403,    1337.1814
   2959,   3312.13501,   611.738403,    1337.1814
   2960,   3337.13232,   611.738403,    1337.1814
   2961,   3362.12939,   611.738403,    1337.1814
   2962,   3387.12671,   611.738403,    1337.1814
   2963,   3412.12402,   611.738403,    1337.1814
   2964,   3437.12109,   611.738403,    1337.1814
   2965,   3462.11841,   611.738403,    1337.1814
   2966,   3487.11572,   611.738403,    1337.1814
   2967,   3512.11304,   611.738403,    1337.1814
   2968,   3537.11011,   611.738403,    1337.1814
   2969,   3562.10742,   611.738403,    1337.1814
   2970,   3587.10474,   611.738403,    1337.1814
   2971,   3612.10181,   611.738403,    1337.1814
   2972,   3637.09912,   611.738403,    1337.1814
   2973,   3662.09644,   611.738403,    1337.1814
   2974,   3687.09375,   611.738403,    1337.1814
   2975,   2087.27002,   611.738403,    1337.1814
   2976,   2112.26733,   611.738403,    1337.1814
   2977,    2137.2644,   611.738403,    1337.1814
   2978,   2162.26172,   611.738403,    1337.1814
   2979,   2187.25903,   611.738403,    1337.1814
   2980,    2212.2561,   611.738403,    1337.1814
   2981,   2237.25342,   611.738403,    1337.1814
   2982,   2262.25073,   611.738403,    1337.1814
   2983,   2287.24805,   611.738403,    1337.1814
   2984,   2312.24512,   611.738403,    1337.1814
   2985,   2337.24243,   611.738403,    1337.1814
   2986,   2362.23975,   611.738403,    1337.1814
   2987,   2387.23682,   611.738403,    1337.1814
   2988,   2412.23413,   611.738403,    1337.1814
   2989,   2437.23145,   611.738403,    1337.1814
   2990,   2462.22876,   611.738403,    1337.1814
   2991,   2487.22583,   611.738403,    1337.1814
   2992,   2512.22314,   611.738403,    1337.1814
   2993,   2537.22046,   611.738403,    1337.1814
   2994,   2562.21753,   611.738403,    1337.1814
   2995,   2587.21484,   611.738403,    1337.1814
   2996,   2612.21216,   611.738403,    1337.1814
   2997,   2637.20947,   611.738403,    1337.1814
   2998,   2662.20654,   611.738403,    1337.1814
   2999,   2687.20386,   611.738403,    1337.1814
   3000,   2712.20117,   611.738403,    1337.1814
   3001,   2737.19824,   611.738403,    1337.1814
   3002,   2762.19556,   611.738403,    1337.1814
   3003,   2787.19287,   611.738403,    1337.1814
   3004,   2812.19019,   611.738403,    1337.1814
   3005,   2837.18726,   611.738403,    1337.1814
   3006,   2862.18457,   611.738403,    1337.1814
   3007,   1262.36084,   611.738403,    1337.1814
   3008,   1287.35815,   611.738403,    1337.1814
   3009,   1312.35535,   611.738403,    1337.1814
   3010,   1337.35266,   611.738403,    1337.1814
   3011,   1362.34985,   611.738403,    1337.1814
   3012,   1387.34717,   611.738403,    1337.1814
   3013,   1412.34436,   611.738403,    1337.1814
   3014,   1437.34155,   611.738403,    1337.1814
   3015,   1462.33887,   611.738403,    1337.1814
   3016,   1487.33606,   611.738403,    1337.1814
   3017,   1512.33337,   611.738403,    1337.1814
   3018,   1537.33057,   611.738403,    1337.1814
   3019,   1562.32788,   611.738403,    1337.1814
   3020,   1587.32507,   611.738403,    1337.1814
   3021,   1612.32227,   611.738403,    1337.1814
   3022,   1637.31958,   611.738403,    1337.1814
   3023,   1662.31677,   611.738403,    1337.1814
   3024,   1687.31409,   611.738403,    1337.1814
   3025,   1712.31128,   611.738403,    1337.1814
   3026,   1737.30859,   611.738403,    1337.1814
   3027,   1762.30579,   611.738403,    1337.1814
   3028,   1787.30298,   611.738403,    1337.1814
   3029,   1812.30029,   611.738403,    1337.1814
   3030,   1837.29749,   611.738403,    1337.1814
   3031,    1862.2948,   611.738403,    1337.1814
   3032,   1887.29199,   611.738403,    1337.1814
   3033,   1912.28931,   611.738403,    1337.1814
   3034,    1937.2865,   611.738403,    1337.1814
   3035,   1962.28369,   611.738403,    1337.1814
   3036,   1987.28101,   611.738403,    1337.1814
   3037,    2012.2782,   611.738403,    1337.1814
   3038,   2037.27551,   611.738403,    1337.1814
   3039,   437.451782,   611.738403,    1337.1814
   3040,   462.449036,   611.738403,    1337.1814
   3041,   487.446289,   611.738403,    1337.1814
   3042,   512.443542,   611.738403,    1337.1814
   3043,   537.440796,   611.738403,    1337.1814
   3044,   562.437988,   611.738403,    1337.1814
   3045,   587.435242,   611.738403,    1337.1814
   3046,   612.432495,   611.738403,    1337.1814
   3047,   637.429749,   611.738403,    1337.1814
   3048,   662.427002,   611.738403,    1337.1814
   3049,   687.424255,   611.738403,    1337.1814
   3050,   712.421509,   611.738403,    1337.1814
   3051,   737.418762,   611.738403,    1337.1814
   3052,   762.415955,   611.738403,    1337.1814
   3053,   787.413208,   611.738403,    1337.1814
   3054,   812.410461,   611.738403,    1337.1814
   3055,   837.407715,   611.738403,    1337.1814
   3056,   862.404968,   611.738403,    1337.1814
   3057,   887.402222,   611.738403,    1337.1814
   3058,   912.399475,   611.738403,    1337.1814
   3059,   937.396667,   611.738403,    1337.1814
   3060,   962.393921,   611.738403,    1337.1814
   3061,   987.391174,   611.738403,    1337.1814
   3062,   1012.38843,   611.738403,    1337.1814
   3063,   1037.38562,   611.738403,    1337.1814
   3064,   1062.38293,   611.738403,    1337.1814
   3065,   1087.38013,   611.738403,    1337.1814
   3066,   1112.37744,   611.738403,    1337.1814
   3067,   1137.37463,   611.738403,    1337.1814
   3068,   1162.37195,   611.738403,    1337.1814
   3069,   1187.36914,   611.738403,    1337.1814
   3070,   1212.36633,   611.738403,    1337.1814
   3071,     25.77841,   611.738403,    1337.1814
   3072,   51.5568199,   611.738403,    1337.1814
   3073,    77.335228,   611.738403,    1337.1814
   3074,    103.11364,   611.738403,    1337.1814
   3075,   128.892044,   611.738403,    1337.1814
   3076,   154.670456,   611.738403,    1337.1814
   3077,   180.448868,   611.738403,    1337.1814
   3078,    206.22728,   611.738403,    1337.1814
   3079,   232.005676,   611.738403,    1337.1814
   3080,   257.784088,   611.738403,    1337.1814
   3081,     283.5625,   611.738403,    1337.1814
   3082,   309.340912,   611.738403,    1337.1814
   3083,   335.119324,   611.738403,    1337.1814
   3084,   360.897736,   611.738403,    1337.1814
   3085,   386.676147,   611.738403,    1337.1814
   3086,       18148.,           0.,         952.
   3087,       18148.,           0.,         977.
   3088,       18148.,           0.,        1002.
   3089,       18148.,           0.,        1027.
   3090,       18148.,           0.,   25.0540543
   3091,       18148.,           0.,   50.1081085
   3092,       18148.,           0.,   75.1621628
   3093,       18148.,           0.,   100.216217
   3094,       18148.,           0.,   125.270271
   3095,       18148.,           0.,   150.324326
   3096,       18148.,           0.,   175.378372
   3097,       18148.,           0.,   200.432434
   3098,       18148.,           0.,   225.486481
   3099,       18148.,           0.,   250.540543
   3100,       18148.,           0.,   275.594604
   3101,       18148.,           0.,   300.648651
   3102,       18148.,           0.,   325.702698
   3103,       18148.,           0.,   350.756744
   3104,       18148.,           0.,   375.810822
   3105,       18148.,           0.,   400.864868
   3106,       18148.,           0.,   425.918915
   3107,       18148.,           0.,   450.972961
   3108,       18148.,           0.,   476.027039
   3109,       18148.,           0.,   501.081085
   3110,       18148.,           0.,   526.135132
   3111,       18148.,           0.,   551.189209
   3112,       18148.,           0.,   576.243225
   3113,       18148.,           0.,   601.297302
   3114,       18148.,           0.,   626.351379
   3115,       18148.,           0.,   651.405396
   3116,       18148.,           0.,   676.459473
   3117,       18148.,           0.,   701.513489
   3118,       18148.,           0.,   726.567566
   3119,       18148.,           0.,   751.621643
   3120,       18148.,           0.,   776.675659
   3121,       18148.,           0.,   801.729736
   3122,       18148.,           0.,   826.783813
   3123,       18148.,           0.,    851.83783
   3124,       18148.,           0.,   876.891907
   3125,       18148.,           0.,   901.945923
   3126,   17761.3242,  -299.144806,   912.544128
   3127,   17787.1016,  -299.144806,   912.544128
   3128,   17812.8809,  -299.144806,   912.544128
   3129,   17838.6582,  -299.144806,   912.544128
   3130,   17864.4375,  -299.144806,   912.544128
   3131,   17890.2168,  -299.144806,   912.544128
   3132,   17915.9941,  -299.144806,   912.544128
   3133,   17941.7734,  -299.144806,   912.544128
   3134,   17967.5508,  -299.144806,   912.544128
   3135,   17993.3301,  -299.144806,   912.544128
   3136,   18019.1074,  -299.144806,   912.544128
   3137,   18044.8867,  -299.144806,   912.544128
   3138,   18070.6641,  -299.144806,   912.544128
   3139,   18096.4434,  -299.144806,   912.544128
   3140,   18122.2207,  -299.144806,   912.544128
   3141,   16935.6328,  -299.144806,   912.544128
   3142,   16960.6309,  -299.144806,   912.544128
   3143,   16985.6289,  -299.144806,   912.544128
   3144,    17010.625,  -299.144806,   912.544128
   3145,    17035.623,  -299.144806,   912.544128
   3146,   17060.6191,  -299.144806,   912.544128
   3147,   17085.6172,  -299.144806,   912.544128
   3148,   17110.6152,  -299.144806,   912.544128
   3149,   17135.6113,  -299.144806,   912.544128
   3150,   17160.6094,  -299.144806,   912.544128
   3151,   17185.6055,  -299.144806,   912.544128
   3152,   17210.6035,  -299.144806,   912.544128
   3153,   17235.5996,  -299.144806,   912.544128
   3154,   17260.5977,  -299.144806,   912.544128
   3155,   17285.5957,  -299.144806,   912.544128
   3156,   17310.5918,  -299.144806,   912.544128
   3157,   17335.5898,  -299.144806,   912.544128
   3158,   17360.5859,  -299.144806,   912.544128
   3159,    17385.584,  -299.144806,   912.544128
   3160,    17410.582,  -299.144806,   912.544128
   3161,   17435.5781,  -299.144806,   912.544128
   3162,   17460.5762,  -299.144806,   912.544128
   3163,   17485.5723,  -299.144806,   912.544128
   3164,   17510.5703,  -299.144806,   912.544128
   3165,   17535.5684,  -299.144806,   912.544128
   3166,   17560.5645,  -299.144806,   912.544128
   3167,   17585.5625,  -299.144806,   912.544128
   3168,   17610.5586,  -299.144806,   912.544128
   3169,   17635.5566,  -299.144806,   912.544128
   3170,   17660.5547,  -299.144806,   912.544128
   3171,   17685.5508,  -299.144806,   912.544128
   3172,   17710.5488,  -299.144806,   912.544128
   3173,   16110.7246,  -299.144806,   912.544128
   3174,   16135.7217,  -299.144806,   912.544128
   3175,   16160.7188,  -299.144806,   912.544128
   3176,   16185.7158,  -299.144806,   912.544128
   3177,   16210.7139,  -299.144806,   912.544128
   3178,   16235.7109,  -299.144806,   912.544128
   3179,    16260.708,  -299.144806,   912.544128
   3180,   16285.7051,  -299.144806,   912.544128
   3181,   16310.7021,  -299.144806,   912.544128
   3182,   16335.7002,  -299.144806,   912.544128
   3183,   16360.6973,  -299.144806,   912.544128
   3184,   16385.6934,  -299.144806,   912.544128
   3185,   16410.6914,  -299.144806,   912.544128
   3186,   16435.6895,  -299.144806,   912.544128
   3187,   16460.6855,  -299.144806,   912.544128
   3188,   16485.6836,  -299.144806,   912.544128
   3189,   16510.6797,  -299.144806,   912.544128
   3190,   16535.6777,  -299.144806,   912.544128
   3191,   16560.6758,  -299.144806,   912.544128
   3192,   16585.6719,  -299.144806,   912.544128
   3193,   16610.6699,  -299.144806,   912.544128
   3194,    16635.666,  -299.144806,   912.544128
   3195,   16660.6641,  -299.144806,   912.544128
   3196,   16685.6621,  -299.144806,   912.544128
   3197,   16710.6582,  -299.144806,   912.544128
   3198,   16735.6562,  -299.144806,   912.544128
   3199,   16760.6523,  -299.144806,   912.544128
   3200,   16785.6504,  -299.144806,   912.544128
   3201,   16810.6465,  -299.144806,   912.544128
   3202,   16835.6445,  -299.144806,   912.544128
   3203,   16860.6426,  -299.144806,   912.544128
   3204,   16885.6387,  -299.144806,   912.544128
   3205,   15285.8154,  -299.144806,   912.544128
   3206,   15310.8125,  -299.144806,   912.544128
   3207,   15335.8096,  -299.144806,   912.544128
   3208,   15360.8076,  -299.144806,   912.544128
   3209,   15385.8047,  -299.144806,   912.544128
   3210,   15410.8018,  -299.144806,   912.544128
   3211,   15435.7988,  -299.144806,   912.544128
   3212,   15460.7959,  -299.144806,   912.544128
   3213,    15485.793,  -299.144806,   912.544128
   3214,    15510.791,  -299.144806,   912.544128
   3215,   15535.7881,  -299.144806,   912.544128
   3216,   15560.7852,  -299.144806,   912.544128
   3217,   15585.7822,  -299.144806,   912.544128
   3218,   15610.7793,  -299.144806,   912.544128
   3219,   15635.7773,  -299.144806,   912.544128
   3220,   15660.7744,  -299.144806,   912.544128
   3221,   15685.7715,  -299.144806,   912.544128
   3222,   15710.7686,  -299.144806,   912.544128
   3223,   15735.7656,  -299.144806,   912.544128
   3224,   15760.7627,  -299.144806,   912.544128
   3225,   15785.7607,  -299.144806,   912.544128
   3226,   15810.7578,  -299.144806,   912.544128
   3227,   15835.7549,  -299.144806,   912.544128
   3228,    15860.752,  -299.144806,   912.544128
   3229,    15885.749,  -299.144806,   912.544128
   3230,   15910.7461,  -299.144806,   912.544128
   3231,   15935.7441,  -299.144806,   912.544128
   3232,   15960.7412,  -299.144806,   912.544128
   3233,   15985.7383,  -299.144806,   912.544128
   3234,   16010.7354,  -299.144806,   912.544128
   3235,   16035.7324,  -299.144806,   912.544128
   3236,   16060.7305,  -299.144806,   912.544128
   3237,   14460.9062,  -299.144806,   912.544128
   3238,   14485.9033,  -299.144806,   912.544128
   3239,   14510.9004,  -299.144806,   912.544128
   3240,   14535.8984,  -299.144806,   912.544128
   3241,   14560.8955,  -299.144806,   912.544128
   3242,   14585.8926,  -299.144806,   912.544128
   3243,   14610.8896,  -299.144806,   912.544128
   3244,   14635.8867,  -299.144806,   912.544128
   3245,   14660.8848,  -299.144806,   912.544128
   3246,   14685.8818,  -299.144806,   912.544128
   3247,   14710.8789,  -299.144806,   912.544128
   3248,    14735.876,  -299.144806,   912.544128
   3249,    14760.873,  -299.144806,   912.544128
   3250,   14785.8701,  -299.144806,   912.544128
   3251,   14810.8682,  -299.144806,   912.544128
   3252,   14835.8652,  -299.144806,   912.544128
   3253,   14860.8623,  -299.144806,   912.544128
   3254,   14885.8594,  -299.144806,   912.544128
   3255,   14910.8564,  -299.144806,   912.544128
   3256,   14935.8535,  -299.144806,   912.544128
   3257,   14960.8516,  -299.144806,   912.544128
   3258,   14985.8486,  -299.144806,   912.544128
   3259,   15010.8457,  -299.144806,   912.544128
   3260,   15035.8428,  -299.144806,   912.544128
   3261,   15060.8398,  -299.144806,   912.544128
   3262,   15085.8379,  -299.144806,   912.544128
   3263,    15110.835,  -299.144806,   912.544128
   3264,    15135.832,  -299.144806,   912.544128
   3265,   15160.8291,  -299.144806,   912.544128
   3266,   15185.8262,  -299.144806,   912.544128
   3267,   15210.8232,  -299.144806,   912.544128
   3268,   15235.8213,  -299.144806,   912.544128
   3269,   13635.9971,  -299.144806,   912.544128
   3270,   13660.9941,  -299.144806,   912.544128
   3271,   13685.9922,  -299.144806,   912.544128
   3272,   13710.9893,  -299.144806,   912.544128
   3273,   13735.9863,  -299.144806,   912.544128
   3274,   13760.9834,  -299.144806,   912.544128
   3275,   13785.9805,  -299.144806,   912.544128
   3276,   13810.9775,  -299.144806,   912.544128
   3277,   13835.9756,  -299.144806,   912.544128
   3278,   13860.9727,  -299.144806,   912.544128
   3279,   13885.9697,  -299.144806,   912.544128
   3280,   13910.9668,  -299.144806,   912.544128
   3281,   13935.9639,  -299.144806,   912.544128
   3282,   13960.9619,  -299.144806,   912.544128
   3283,    13985.959,  -299.144806,   912.544128
   3284,   14010.9561,  -299.144806,   912.544128
   3285,   14035.9531,  -299.144806,   912.544128
   3286,   14060.9502,  -299.144806,   912.544128
   3287,   14085.9473,  -299.144806,   912.544128
   3288,   14110.9453,  -299.144806,   912.544128
   3289,   14135.9424,  -299.144806,   912.544128
   3290,   14160.9395,  -299.144806,   912.544128
   3291,   14185.9365,  -299.144806,   912.544128
   3292,   14210.9336,  -299.144806,   912.544128
   3293,   14235.9307,  -299.144806,   912.544128
   3294,   14260.9287,  -299.144806,   912.544128
   3295,   14285.9258,  -299.144806,   912.544128
   3296,   14310.9229,  -299.144806,   912.544128
   3297,   14335.9199,  -299.144806,   912.544128
   3298,    14360.917,  -299.144806,   912.544128
   3299,    14385.915,  -299.144806,   912.544128
   3300,   14410.9121,  -299.144806,   912.544128
   3301,   12811.0879,  -299.144806,   912.544128
   3302,    12836.085,  -299.144806,   912.544128
   3303,    12861.083,  -299.144806,   912.544128
   3304,   12886.0801,  -299.144806,   912.544128
   3305,   12911.0771,  -299.144806,   912.544128
   3306,   12936.0742,  -299.144806,   912.544128
   3307,   12961.0713,  -299.144806,   912.544128
   3308,   12986.0693,  -299.144806,   912.544128
   3309,   13011.0664,  -299.144806,   912.544128
   3310,   13036.0635,  -299.144806,   912.544128
   3311,   13061.0605,  -299.144806,   912.544128
   3312,   13086.0576,  -299.144806,   912.544128
   3313,   13111.0547,  -299.144806,   912.544128
   3314,   13136.0527,  -299.144806,   912.544128
   3315,   13161.0498,  -299.144806,   912.544128
   3316,   13186.0469,  -299.144806,   912.544128
   3317,   13211.0439,  -299.144806,   912.544128
   3318,    13236.041,  -299.144806,   912.544128
   3319,   13261.0381,  -299.144806,   912.544128
   3320,   13286.0361,  -299.144806,   912.544128
   3321,   13311.0332,  -299.144806,   912.544128
   3322,   13336.0303,  -299.144806,   912.544128
   3323,   13361.0273,  -299.144806,   912.544128
   3324,   13386.0244,  -299.144806,   912.544128
   3325,   13411.0225,  -299.144806,   912.544128
   3326,   13436.0195,  -299.144806,   912.544128
   3327,   13461.0166,  -299.144806,   912.544128
   3328,   13486.0137,  -299.144806,   912.544128
   3329,   13511.0107,  -299.144806,   912.544128
   3330,   13536.0078,  -299.144806,   912.544128
   3331,   13561.0059,  -299.144806,   912.544128
   3332,   13586.0029,  -299.144806,   912.544128
   3333,   11986.1787,  -299.144806,   912.544128
   3334,   12011.1768,  -299.144806,   912.544128
   3335,   12036.1738,  -299.144806,   912.544128
   3336,   12061.1709,  -299.144806,   912.544128
   3337,    12086.168,  -299.144806,   912.544128
   3338,    12111.165,  -299.144806,   912.544128
   3339,   12136.1621,  -299.144806,   912.544128
   3340,   12161.1602,  -299.144806,   912.544128
   3341,   12186.1572,  -299.144806,   912.544128
   3342,   12211.1543,  -299.144806,   912.544128
   3343,   12236.1514,  -299.144806,   912.544128
   3344,   12261.1484,  -299.144806,   912.544128
   3345,   12286.1465,  -299.144806,   912.544128
   3346,   12311.1436,  -299.144806,   912.544128
   3347,   12336.1406,  -299.144806,   912.544128
   3348,   12361.1377,  -299.144806,   912.544128
   3349,   12386.1348,  -299.144806,   912.544128
   3350,   12411.1318,  -299.144806,   912.544128
   3351,   12436.1299,  -299.144806,   912.544128
   3352,    12461.127,  -299.144806,   912.544128
   3353,    12486.124,  -299.144806,   912.544128
   3354,   12511.1211,  -299.144806,   912.544128
   3355,   12536.1182,  -299.144806,   912.544128
   3356,   12561.1152,  -299.144806,   912.544128
   3357,   12586.1133,  -299.144806,   912.544128
   3358,   12611.1104,  -299.144806,   912.544128
   3359,   12636.1074,  -299.144806,   912.544128
   3360,   12661.1045,  -299.144806,   912.544128
   3361,   12686.1016,  -299.144806,   912.544128
   3362,   12711.0996,  -299.144806,   912.544128
   3363,   12736.0967,  -299.144806,   912.544128
   3364,   12761.0938,  -299.144806,   912.544128
   3365,   11161.2695,  -299.144806,   912.544128
   3366,   11186.2676,  -299.144806,   912.544128
   3367,   11211.2646,  -299.144806,   912.544128
   3368,   11236.2617,  -299.144806,   912.544128
   3369,   11261.2588,  -299.144806,   912.544128
   3370,   11286.2559,  -299.144806,   912.544128
   3371,   11311.2539,  -299.144806,   912.544128
   3372,    11336.251,  -299.144806,   912.544128
   3373,    11361.248,  -299.144806,   912.544128
   3374,   11386.2451,  -299.144806,   912.544128
   3375,   11411.2422,  -299.144806,   912.544128
   3376,   11436.2393,  -299.144806,   912.544128
   3377,   11461.2373,  -299.144806,   912.544128
   3378,   11486.2344,  -299.144806,   912.544128
   3379,   11511.2314,  -299.144806,   912.544128
   3380,   11536.2285,  -299.144806,   912.544128
   3381,   11561.2256,  -299.144806,   912.544128
   3382,   11586.2227,  -299.144806,   912.544128
   3383,   11611.2207,  -299.144806,   912.544128
   3384,   11636.2178,  -299.144806,   912.544128
   3385,   11661.2148,  -299.144806,   912.544128
   3386,   11686.2119,  -299.144806,   912.544128
   3387,    11711.209,  -299.144806,   912.544128
   3388,    11736.207,  -299.144806,   912.544128
   3389,   11761.2041,  -299.144806,   912.544128
   3390,   11786.2012,  -299.144806,   912.544128
   3391,   11811.1982,  -299.144806,   912.544128
   3392,   11836.1953,  -299.144806,   912.544128
   3393,   11861.1924,  -299.144806,   912.544128
   3394,   11886.1904,  -299.144806,   912.544128
   3395,   11911.1875,  -299.144806,   912.544128
   3396,   11936.1846,  -299.144806,   912.544128
   3397,   10336.3613,  -299.144806,   912.544128
   3398,   10361.3584,  -299.144806,   912.544128
   3399,   10386.3555,  -299.144806,   912.544128
   3400,   10411.3525,  -299.144806,   912.544128
   3401,   10436.3496,  -299.144806,   912.544128
   3402,   10461.3467,  -299.144806,   912.544128
   3403,   10486.3447,  -299.144806,   912.544128
   3404,   10511.3418,  -299.144806,   912.544128
   3405,   10536.3389,  -299.144806,   912.544128
   3406,   10561.3359,  -299.144806,   912.544128
   3407,    10586.333,  -299.144806,   912.544128
   3408,   10611.3311,  -299.144806,   912.544128
   3409,   10636.3281,  -299.144806,   912.544128
   3410,   10661.3252,  -299.144806,   912.544128
   3411,   10686.3223,  -299.144806,   912.544128
   3412,   10711.3193,  -299.144806,   912.544128
   3413,   10736.3164,  -299.144806,   912.544128
   3414,   10761.3145,  -299.144806,   912.544128
   3415,   10786.3115,  -299.144806,   912.544128
   3416,   10811.3086,  -299.144806,   912.544128
   3417,   10836.3057,  -299.144806,   912.544128
   3418,   10861.3027,  -299.144806,   912.544128
   3419,   10886.2998,  -299.144806,   912.544128
   3420,   10911.2979,  -299.144806,   912.544128
   3421,   10936.2949,  -299.144806,   912.544128
   3422,    10961.292,  -299.144806,   912.544128
   3423,   10986.2891,  -299.144806,   912.544128
   3424,   11011.2861,  -299.144806,   912.544128
   3425,   11036.2842,  -299.144806,   912.544128
   3426,   11061.2812,  -299.144806,   912.544128
   3427,   11086.2783,  -299.144806,   912.544128
   3428,   11111.2754,  -299.144806,   912.544128
   3429,   9511.45215,  -299.144806,   912.544128
   3430,   9536.44922,  -299.144806,   912.544128
   3431,   9561.44629,  -299.144806,   912.544128
   3432,   9586.44336,  -299.144806,   912.544128
   3433,   9611.44043,  -299.144806,   912.544128
   3434,   9636.43848,  -299.144806,   912.544128
   3435,   9661.43555,  -299.144806,   912.544128
   3436,   9686.43262,  -299.144806,   912.544128
   3437,   9711.42969,  -299.144806,   912.544128
   3438,   9736.42676,  -299.144806,   912.544128
   3439,   9761.42383,  -299.144806,   912.544128
   3440,   9786.42188,  -299.144806,   912.544128
   3441,   9811.41895,  -299.144806,   912.544128
   3442,   9836.41602,  -299.144806,   912.544128
   3443,   9861.41309,  -299.144806,   912.544128
   3444,   9886.41016,  -299.144806,   912.544128
   3445,   9911.40723,  -299.144806,   912.544128
   3446,   9936.40527,  -299.144806,   912.544128
   3447,   9961.40234,  -299.144806,   912.544128
   3448,   9986.39941,  -299.144806,   912.544128
   3449,   10011.3965,  -299.144806,   912.544128
   3450,   10036.3936,  -299.144806,   912.544128
   3451,   10061.3916,  -299.144806,   912.544128
   3452,   10086.3887,  -299.144806,   912.544128
   3453,   10111.3857,  -299.144806,   912.544128
   3454,   10136.3828,  -299.144806,   912.544128
   3455,   10161.3799,  -299.144806,   912.544128
   3456,    10186.377,  -299.144806,   912.544128
   3457,    10211.375,  -299.144806,   912.544128
   3458,   10236.3721,  -299.144806,   912.544128
   3459,   10261.3691,  -299.144806,   912.544128
   3460,   10286.3662,  -299.144806,   912.544128
   3461,   9099.77832,  -299.144806,   912.544128
   3462,   9125.55664,  -299.144806,   912.544128
   3463,   9151.33496,  -299.144806,   912.544128
   3464,   9177.11328,  -299.144806,   912.544128
   3465,    9202.8916,  -299.144806,   912.544128
   3466,    9228.6709,  -299.144806,   912.544128
   3467,   9254.44922,  -299.144806,   912.544128
   3468,   9280.22754,  -299.144806,   912.544128
   3469,   9306.00586,  -299.144806,   912.544128
   3470,   9331.78418,  -299.144806,   912.544128
   3471,    9357.5625,  -299.144806,   912.544128
   3472,   9383.34082,  -299.144806,   912.544128
   3473,   9409.11914,  -299.144806,   912.544128
   3474,   9434.89746,  -299.144806,   912.544128
   3475,   9460.67578,  -299.144806,   912.544128
   3476,   8687.32422,  -299.144806,   912.544128
   3477,   8713.10254,  -299.144806,   912.544128
   3478,   8738.88086,  -299.144806,   912.544128
   3479,   8764.65918,  -299.144806,   912.544128
   3480,    8790.4375,  -299.144806,   912.544128
   3481,   8816.21582,  -299.144806,   912.544128
   3482,   8841.99414,  -299.144806,   912.544128
   3483,   8867.77246,  -299.144806,   912.544128
   3484,   8893.55078,  -299.144806,   912.544128
   3485,    8919.3291,  -299.144806,   912.544128
   3486,    8945.1084,  -299.144806,   912.544128
   3487,   8970.88672,  -299.144806,   912.544128
   3488,   8996.66504,  -299.144806,   912.544128
   3489,   9022.44336,  -299.144806,   912.544128
   3490,   9048.22168,  -299.144806,   912.544128
   3491,   7861.63379,  -299.144806,   912.544128
   3492,   7886.63086,  -299.144806,   912.544128
   3493,   7911.62793,  -299.144806,   912.544128
   3494,   7936.62549,  -299.144806,   912.544128
   3495,   7961.62256,  -299.144806,   912.544128
   3496,   7986.61963,  -299.144806,   912.544128
   3497,   8011.61719,  -299.144806,   912.544128
   3498,   8036.61426,  -299.144806,   912.544128
   3499,   8061.61133,  -299.144806,   912.544128
   3500,   8086.60889,  -299.144806,   912.544128
   3501,   8111.60596,  -299.144806,   912.544128
   3502,   8136.60352,  -299.144806,   912.544128
   3503,   8161.60059,  -299.144806,   912.544128
   3504,   8186.59766,  -299.144806,   912.544128
   3505,   8211.59473,  -299.144806,   912.544128
   3506,   8236.59277,  -299.144806,   912.544128
   3507,   8261.58984,  -299.144806,   912.544128
   3508,   8286.58691,  -299.144806,   912.544128
   3509,   8311.58398,  -299.144806,   912.544128
   3510,   8336.58105,  -299.144806,   912.544128
   3511,   8361.57812,  -299.144806,   912.544128
   3512,   8386.57617,  -299.144806,   912.544128
   3513,   8411.57324,  -299.144806,   912.544128
   3514,   8436.57031,  -299.144806,   912.544128
   3515,   8461.56738,  -299.144806,   912.544128
   3516,   8486.56445,  -299.144806,   912.544128
   3517,   8511.56152,  -299.144806,   912.544128
   3518,   8536.55957,  -299.144806,   912.544128
   3519,   8561.55664,  -299.144806,   912.544128
   3520,   8586.55371,  -299.144806,   912.544128
   3521,   8611.55078,  -299.144806,   912.544128
   3522,   8636.54785,  -299.144806,   912.544128
   3523,   7036.72461,  -299.144806,   912.544128
   3524,   7061.72168,  -299.144806,   912.544128
   3525,   7086.71924,  -299.144806,   912.544128
   3526,   7111.71631,  -299.144806,   912.544128
   3527,   7136.71338,  -299.144806,   912.544128
   3528,   7161.71094,  -299.144806,   912.544128
   3529,   7186.70801,  -299.144806,   912.544128
   3530,   7211.70508,  -299.144806,   912.544128
   3531,   7236.70264,  -299.144806,   912.544128
   3532,   7261.69971,  -299.144806,   912.544128
   3533,   7286.69678,  -299.144806,   912.544128
   3534,   7311.69434,  -299.144806,   912.544128
   3535,   7336.69141,  -299.144806,   912.544128
   3536,   7361.68848,  -299.144806,   912.544128
   3537,   7386.68604,  -299.144806,   912.544128
   3538,   7411.68311,  -299.144806,   912.544128
   3539,   7436.68066,  -299.144806,   912.544128
   3540,   7461.67773,  -299.144806,   912.544128
   3541,    7486.6748,  -299.144806,   912.544128
   3542,   7511.67236,  -299.144806,   912.544128
   3543,   7536.66943,  -299.144806,   912.544128
   3544,    7561.6665,  -299.144806,   912.544128
   3545,   7586.66406,  -299.144806,   912.544128
   3546,   7611.66113,  -299.144806,   912.544128
   3547,    7636.6582,  -299.144806,   912.544128
   3548,   7661.65576,  -299.144806,   912.544128
   3549,   7686.65283,  -299.144806,   912.544128
   3550,    7711.6499,  -299.144806,   912.544128
   3551,   7736.64746,  -299.144806,   912.544128
   3552,   7761.64453,  -299.144806,   912.544128
   3553,   7786.64209,  -299.144806,   912.544128
   3554,   7811.63916,  -299.144806,   912.544128
   3555,   6211.81543,  -299.144806,   912.544128
   3556,    6236.8125,  -299.144806,   912.544128
   3557,   6261.81006,  -299.144806,   912.544128
   3558,   6286.80713,  -299.144806,   912.544128
   3559,    6311.8042,  -299.144806,   912.544128
   3560,   6336.80176,  -299.144806,   912.544128
   3561,   6361.79883,  -299.144806,   912.544128
   3562,   6386.79639,  -299.144806,   912.544128
   3563,   6411.79346,  -299.144806,   912.544128
   3564,   6436.79053,  -299.144806,   912.544128
   3565,   6461.78809,  -299.144806,   912.544128
   3566,   6486.78516,  -299.144806,   912.544128
   3567,   6511.78223,  -299.144806,   912.544128
   3568,   6536.77979,  -299.144806,   912.544128
   3569,   6561.77686,  -299.144806,   912.544128
   3570,   6586.77393,  -299.144806,   912.544128
   3571,   6611.77148,  -299.144806,   912.544128
   3572,   6636.76855,  -299.144806,   912.544128
   3573,   6661.76562,  -299.144806,   912.544128
   3574,   6686.76318,  -299.144806,   912.544128
   3575,   6711.76025,  -299.144806,   912.544128
   3576,   6736.75781,  -299.144806,   912.544128
   3577,   6761.75488,  -299.144806,   912.544128
   3578,   6786.75195,  -299.144806,   912.544128
   3579,   6811.74951,  -299.144806,   912.544128
   3580,   6836.74658,  -299.144806,   912.544128
   3581,   6861.74365,  -299.144806,   912.544128
   3582,   6886.74121,  -299.144806,   912.544128
   3583,   6911.73828,  -299.144806,   912.544128
   3584,   6936.73535,  -299.144806,   912.544128
   3585,   6961.73291,  -299.144806,   912.544128
   3586,   6986.72998,  -299.144806,   912.544128
   3587,   5386.90625,  -299.144806,   912.544128
   3588,   5411.90381,  -299.144806,   912.544128
   3589,   5436.90088,  -299.144806,   912.544128
   3590,   5461.89795,  -299.144806,   912.544128
   3591,   5486.89551,  -299.144806,   912.544128
   3592,   5511.89258,  -299.144806,   912.544128
   3593,   5536.88965,  -299.144806,   912.544128
   3594,   5561.88721,  -299.144806,   912.544128
   3595,   5586.88428,  -299.144806,   912.544128
   3596,   5611.88135,  -299.144806,   912.544128
   3597,   5636.87891,  -299.144806,   912.544128
   3598,   5661.87598,  -299.144806,   912.544128
   3599,   5686.87305,  -299.144806,   912.544128
   3600,   5711.87061,  -299.144806,   912.544128
   3601,   5736.86768,  -299.144806,   912.544128
   3602,   5761.86523,  -299.144806,   912.544128
   3603,    5786.8623,  -299.144806,   912.544128
   3604,   5811.85938,  -299.144806,   912.544128
   3605,   5836.85693,  -299.144806,   912.544128
   3606,     5861.854,  -299.144806,   912.544128
   3607,   5886.85107,  -299.144806,   912.544128
   3608,   5911.84863,  -299.144806,   912.544128
   3609,    5936.8457,  -299.144806,   912.544128
   3610,   5961.84277,  -299.144806,   912.544128
   3611,   5986.84033,  -299.144806,   912.544128
   3612,    6011.8374,  -299.144806,   912.544128
   3613,   6036.83447,  -299.144806,   912.544128
   3614,   6061.83203,  -299.144806,   912.544128
   3615,    6086.8291,  -299.144806,   912.544128
   3616,   6111.82666,  -299.144806,   912.544128
   3617,   6136.82373,  -299.144806,   912.544128
   3618,    6161.8208,  -299.144806,   912.544128
   3619,   4561.99707,  -299.144806,   912.544128
   3620,   4586.99463,  -299.144806,   912.544128
   3621,    4611.9917,  -299.144806,   912.544128
   3622,   4636.98877,  -299.144806,   912.544128
   3623,   4661.98633,  -299.144806,   912.544128
   3624,    4686.9834,  -299.144806,   912.544128
   3625,   4711.98096,  -299.144806,   912.544128
   3626,   4736.97803,  -299.144806,   912.544128
   3627,    4761.9751,  -299.144806,   912.544128
   3628,   4786.97266,  -299.144806,   912.544128
   3629,   4811.96973,  -299.144806,   912.544128
   3630,    4836.9668,  -299.144806,   912.544128
   3631,   4861.96436,  -299.144806,   912.544128
   3632,   4886.96143,  -299.144806,   912.544128
   3633,    4911.9585,  -299.144806,   912.544128
   3634,   4936.95605,  -299.144806,   912.544128
   3635,   4961.95312,  -299.144806,   912.544128
   3636,    4986.9502,  -299.144806,   912.544128
   3637,   5011.94775,  -299.144806,   912.544128
   3638,   5036.94482,  -299.144806,   912.544128
   3639,   5061.94238,  -299.144806,   912.544128
   3640,   5086.93945,  -299.144806,   912.544128
   3641,   5111.93652,  -299.144806,   912.544128
   3642,   5136.93408,  -299.144806,   912.544128
   3643,   5161.93115,  -299.144806,   912.544128
   3644,   5186.92822,  -299.144806,   912.544128
   3645,   5211.92578,  -299.144806,   912.544128
   3646,   5236.92285,  -299.144806,   912.544128
   3647,   5261.91992,  -299.144806,   912.544128
   3648,   5286.91748,  -299.144806,   912.544128
   3649,   5311.91455,  -299.144806,   912.544128
   3650,   5336.91162,  -299.144806,   912.544128
   3651,   3737.08813,  -299.144806,   912.544128
   3652,   3762.08545,  -299.144806,   912.544128
   3653,   3787.08276,  -299.144806,   912.544128
   3654,   3812.07983,  -299.144806,   912.544128
   3655,   3837.07715,  -299.144806,   912.544128
   3656,   3862.07446,  -299.144806,   912.544128
   3657,   3887.07153,  -299.144806,   912.544128
   3658,   3912.06885,  -299.144806,   912.544128
   3659,   3937.06616,  -299.144806,   912.544128
   3660,   3962.06348,  -299.144806,   912.544128
   3661,   3987.06055,  -299.144806,   912.544128
   3662,   4012.05786,  -299.144806,   912.544128
   3663,   4037.05518,  -299.144806,   912.544128
   3664,   4062.05225,  -299.144806,   912.544128
   3665,   4087.04956,  -299.144806,   912.544128
   3666,   4112.04688,  -299.144806,   912.544128
   3667,   4137.04395,  -299.144806,   912.544128
   3668,    4162.0415,  -299.144806,   912.544128
   3669,   4187.03857,  -299.144806,   912.544128
   3670,   4212.03564,  -299.144806,   912.544128
   3671,    4237.0332,  -299.144806,   912.544128
   3672,   4262.03027,  -299.144806,   912.544128
   3673,   4287.02734,  -299.144806,   912.544128
   3674,    4312.0249,  -299.144806,   912.544128
   3675,   4337.02197,  -299.144806,   912.544128
   3676,   4362.01904,  -299.144806,   912.544128
   3677,    4387.0166,  -299.144806,   912.544128
   3678,   4412.01367,  -299.144806,   912.544128
   3679,   4437.01123,  -299.144806,   912.544128
   3680,    4462.0083,  -299.144806,   912.544128
   3681,   4487.00537,  -299.144806,   912.544128
   3682,   4512.00293,  -299.144806,   912.544128
   3683,   2912.17896,  -299.144806,   912.544128
   3684,   2937.17627,  -299.144806,   912.544128
   3685,   2962.17358,  -299.144806,   912.544128
   3686,    2987.1709,  -299.144806,   912.544128
   3687,   3012.16797,  -299.144806,   912.544128
   3688,   3037.16528,  -299.144806,   912.544128
   3689,    3062.1626,  -299.144806,   912.544128
   3690,   3087.15967,  -299.144806,   912.544128
   3691,   3112.15698,  -299.144806,   912.544128
   3692,    3137.1543,  -299.144806,   912.544128
   3693,   3162.15161,  -299.144806,   912.544128
   3694,   3187.14868,  -299.144806,   912.544128
   3695,     3212.146,  -299.144806,   912.544128
   3696,   3237.14331,  -299.144806,   912.544128
   3697,   3262.14038,  -299.144806,   912.544128
   3698,    3287.1377,  -299.144806,   912.544128
   3699,   3312.13501,  -299.144806,   912.544128
   3700,   3337.13232,  -299.144806,   912.544128
   3701,   3362.12939,  -299.144806,   912.544128
   3702,   3387.12671,  -299.144806,   912.544128
   3703,   3412.12402,  -299.144806,   912.544128
   3704,   3437.12109,  -299.144806,   912.544128
   3705,   3462.11841,  -299.144806,   912.544128
   3706,   3487.11572,  -299.144806,   912.544128
   3707,   3512.11304,  -299.144806,   912.544128
   3708,   3537.11011,  -299.144806,   912.544128
   3709,   3562.10742,  -299.144806,   912.544128
   3710,   3587.10474,  -299.144806,   912.544128
   3711,   3612.10181,  -299.144806,   912.544128
   3712,   3637.09912,  -299.144806,   912.544128
   3713,   3662.09644,  -299.144806,   912.544128
   3714,   3687.09375,  -299.144806,   912.544128
   3715,   2087.27002,  -299.144806,   912.544128
   3716,   2112.26733,  -299.144806,   912.544128
   3717,    2137.2644,  -299.144806,   912.544128
   3718,   2162.26172,  -299.144806,   912.544128
   3719,   2187.25903,  -299.144806,   912.544128
   3720,    2212.2561,  -299.144806,   912.544128
   3721,   2237.25342,  -299.144806,   912.544128
   3722,   2262.25073,  -299.144806,   912.544128
   3723,   2287.24805,  -299.144806,   912.544128
   3724,   2312.24512,  -299.144806,   912.544128
   3725,   2337.24243,  -299.144806,   912.544128
   3726,   2362.23975,  -299.144806,   912.544128
   3727,   2387.23682,  -299.144806,   912.544128
   3728,   2412.23413,  -299.144806,   912.544128
   3729,   2437.23145,  -299.144806,   912.544128
   3730,   2462.22876,  -299.144806,   912.544128
   3731,   2487.22583,  -299.144806,   912.544128
   3732,   2512.22314,  -299.144806,   912.544128
   3733,   2537.22046,  -299.144806,   912.544128
   3734,   2562.21753,  -299.144806,   912.544128
   3735,   2587.21484,  -299.144806,   912.544128
   3736,   2612.21216,  -299.144806,   912.544128
   3737,   2637.20947,  -299.144806,   912.544128
   3738,   2662.20654,  -299.144806,   912.544128
   3739,   2687.20386,  -299.144806,   912.544128
   3740,   2712.20117,  -299.144806,   912.544128
   3741,   2737.19824,  -299.144806,   912.544128
   3742,   2762.19556,  -299.144806,   912.544128
   3743,   2787.19287,  -299.144806,   912.544128
   3744,   2812.19019,  -299.144806,   912.544128
   3745,   2837.18726,  -299.144806,   912.544128
   3746,   2862.18457,  -299.144806,   912.544128
   3747,   1262.36084,  -299.144806,   912.544128
   3748,   1287.35815,  -299.144806,   912.544128
   3749,   1312.35535,  -299.144806,   912.544128
   3750,   1337.35266,  -299.144806,   912.544128
   3751,   1362.34985,  -299.144806,   912.544128
   3752,   1387.34717,  -299.144806,   912.544128
   3753,   1412.34436,  -299.144806,   912.544128
   3754,   1437.34155,  -299.144806,   912.544128
   3755,   1462.33887,  -299.144806,   912.544128
   3756,   1487.33606,  -299.144806,   912.544128
   3757,   1512.33337,  -299.144806,   912.544128
   3758,   1537.33057,  -299.144806,   912.544128
   3759,   1562.32788,  -299.144806,   912.544128
   3760,   1587.32507,  -299.144806,   912.544128
   3761,   1612.32227,  -299.144806,   912.544128
   3762,   1637.31958,  -299.144806,   912.544128
   3763,   1662.31677,  -299.144806,   912.544128
   3764,   1687.31409,  -299.144806,   912.544128
   3765,   1712.31128,  -299.144806,   912.544128
   3766,   1737.30859,  -299.144806,   912.544128
   3767,   1762.30579,  -299.144806,   912.544128
   3768,   1787.30298,  -299.144806,   912.544128
   3769,   1812.30029,  -299.144806,   912.544128
   3770,   1837.29749,  -299.144806,   912.544128
   3771,    1862.2948,  -299.144806,   912.544128
   3772,   1887.29199,  -299.144806,   912.544128
   3773,   1912.28931,  -299.144806,   912.544128
   3774,    1937.2865,  -299.144806,   912.544128
   3775,   1962.28369,  -299.144806,   912.544128
   3776,   1987.28101,  -299.144806,   912.544128
   3777,    2012.2782,  -299.144806,   912.544128
   3778,   2037.27551,  -299.144806,   912.544128
   3779,   437.451782,  -299.144806,   912.544128
   3780,   462.449036,  -299.144806,   912.544128
   3781,   487.446289,  -299.144806,   912.544128
   3782,   512.443542,  -299.144806,   912.544128
   3783,   537.440796,  -299.144806,   912.544128
   3784,   562.437988,  -299.144806,   912.544128
   3785,   587.435242,  -299.144806,   912.544128
   3786,   612.432495,  -299.144806,   912.544128
   3787,   637.429749,  -299.144806,   912.544128
   3788,   662.427002,  -299.144806,   912.544128
   3789,   687.424255,  -299.144806,   912.544128
   3790,   712.421509,  -299.144806,   912.544128
   3791,   737.418762,  -299.144806,   912.544128
   3792,   762.415955,  -299.144806,   912.544128
   3793,   787.413208,  -299.144806,   912.544128
   3794,   812.410461,  -299.144806,   912.544128
   3795,   837.407715,  -299.144806,   912.544128
   3796,   862.404968,  -299.144806,   912.544128
   3797,   887.402222,  -299.144806,   912.544128
   3798,   912.399475,  -299.144806,   912.544128
   3799,   937.396667,  -299.144806,   912.544128
   3800,   962.393921,  -299.144806,   912.544128
   3801,   987.391174,  -299.144806,   912.544128
   3802,   1012.38843,  -299.144806,   912.544128
   3803,   1037.38562,  -299.144806,   912.544128
   3804,   1062.38293,  -299.144806,   912.544128
   3805,   1087.38013,  -299.144806,   912.544128
   3806,   1112.37744,  -299.144806,   912.544128
   3807,   1137.37463,  -299.144806,   912.544128
   3808,   1162.37195,  -299.144806,   912.544128
   3809,   1187.36914,  -299.144806,   912.544128
   3810,   1212.36633,  -299.144806,   912.544128
   3811,     25.77841,  -299.144806,   912.544128
   3812,   51.5568199,  -299.144806,   912.544128
   3813,    77.335228,  -299.144806,   912.544128
   3814,    103.11364,  -299.144806,   912.544128
   3815,   128.892044,  -299.144806,   912.544128
   3816,   154.670456,  -299.144806,   912.544128
   3817,   180.448868,  -299.144806,   912.544128
   3818,    206.22728,  -299.144806,   912.544128
   3819,   232.005676,  -299.144806,   912.544128
   3820,   257.784088,  -299.144806,   912.544128
   3821,     283.5625,  -299.144806,   912.544128
   3822,   309.340912,  -299.144806,   912.544128
   3823,   335.119324,  -299.144806,   912.544128
   3824,   360.897736,  -299.144806,   912.544128
   3825,   386.676147,  -299.144806,   912.544128
   3826,       13611.,   2134.36011,   441.850464
   3827,       13611.,   2134.36011,   466.930908
   3828,       13611.,   2134.36011,   492.011383
   3829,       13611.,   2134.36011,   517.091858
   3830,       13611.,   2134.36011,   542.172302
   3831,       13611.,   2134.36011,   567.252747
   3832,       13611.,   2134.36011,   592.333252
   3833,       13611.,   2134.36011,   617.413696
   3834,       13611.,   2134.36011,   642.494141
   3835,       13611.,   2134.36011,   667.574585
   3836,       13611.,   2134.36011,    692.65509
   3837,       13611.,   2134.36011,   717.735535
   3838,       13611.,   2134.36011,   742.815979
   3839,       13611.,   2134.36011,   767.896484
   3840,       13611.,   2134.36011,   792.976929
   3841,       13611.,   2134.36011,   818.057373
   3842,       13611.,   2134.36011,   843.137817
   3843,       13611.,   2134.36011,   868.218323
   3844,       13611.,   2134.36011,   893.298767
   3845,       13611.,   2134.36011,   918.379211
   3846,       13611.,   2134.36011,   943.459717
   3847,       13611.,   2134.36011,   968.540161
   3848,       13611.,   2134.36011,   993.620605
   3849,       13611.,   2134.36011,   1018.70105
   3850,       13611.,   2134.36011,   1043.78149
   3851,       13611.,   2134.36011,   1068.86206
   3852,       13611.,   2134.36011,    1093.9425
   3853,       13611.,   2134.36011,   1119.02295
   3854,       13611.,   2134.36011,   1144.10339
   3855,       13611.,   2134.36011,   1169.18384
   3856,       13611.,   2134.36011,   1194.26428
   3857,       13611.,   2134.36011,   1219.34473
   3858,       13611.,   2134.36011,   1244.42517
   3859,       13611.,   2134.36011,   1269.50574
   3860,       13611.,   2134.36011,   1294.58618
   3861,       13611.,   2134.36011,   1319.66663
   3862,       13611.,   2134.36011,   1344.74707
   3863,       13611.,   2134.36011,   1369.82751
   3864,       13611.,   2134.36011,   1394.90796
   3865,       13611.,   2134.36011,    1419.9884
   3866,       13611.,   2134.36011,   1445.06897
   3867,       13611.,   2134.36011,   1470.14941
   3868,       13611.,   2134.36011,   1495.22986
   3869,       13611.,   2134.36011,    1520.3103
   3870,       13611.,   2134.36011,   1545.39075
   3871,       13611.,   2134.36011,   1570.47119
   3872,       13611.,   2134.36011,   1595.55164
   3873,       13611.,   2134.36011,    1620.6322
   3874,       13611.,   2134.36011,   1645.71265
   3875,       13611.,   2134.36011,   1670.79309
   3876,       13611.,   2134.36011,   1695.87354
   3877,       13611.,   2134.36011,   1720.95398
   3878,       13611.,   2134.36011,   1746.03442
   3879,       13611.,   2134.36011,   1771.11487
   3880,       13611.,   2134.36011,   1796.19543
   3881,       13611.,   2134.36011,   1821.27588
   3882,       13611.,   2134.36011,   1846.35632
   3883,       13611.,   2134.36011,   1871.43677
   3884,       13611.,   2134.36011,   1896.51721
   3885,       13611.,   2134.36011,   1921.59766
   3886,       13611.,   2134.36011,    1946.6781
   3887,       13611.,   2134.36011,   1971.75867
   3888,       13611.,   2134.36011,   1996.83911
   3889,       13611.,   2134.36011,   2021.91956
   3890,       13611.,   2134.36011,   24.5158825
   3891,       13611.,   2134.36011,    49.031765
   3892,       13611.,   2134.36011,   73.5476456
   3893,       13611.,   2134.36011,     98.06353
   3894,       13611.,   2134.36011,   122.579414
   3895,       13611.,   2134.36011,   147.095291
   3896,       13611.,   2134.36011,   171.611176
   3897,       13611.,   2134.36011,    196.12706
   3898,       13611.,   2134.36011,   220.642944
   3899,       13611.,   2134.36011,   245.158829
   3900,       13611.,   2134.36011,   269.674713
   3901,       13611.,   2134.36011,   294.190582
   3902,       13611.,   2134.36011,   318.706482
   3903,       13611.,   2134.36011,   343.222351
   3904,       13611.,   2134.36011,    367.73822
   3905,       13611.,   2134.36011,    392.25412
   3906,       13611.,           0.,         952.
   3907,       13611.,           0.,         977.
   3908,       13611.,           0.,        1002.
   3909,       13611.,           0.,        1027.
   3910,       13611.,           0.,   25.0540543
   3911,       13611.,           0.,   50.1081085
   3912,       13611.,           0.,   75.1621628
   3913,       13611.,           0.,   100.216217
   3914,       13611.,           0.,   125.270271
   3915,       13611.,           0.,   150.324326
   3916,       13611.,           0.,   175.378372
   3917,       13611.,           0.,   200.432434
   3918,       13611.,           0.,   225.486481
   3919,       13611.,           0.,   250.540543
   3920,       13611.,           0.,   275.594604
   3921,       13611.,           0.,   300.648651
   3922,       13611.,           0.,   325.702698
   3923,       13611.,           0.,   350.756744
   3924,       13611.,           0.,   375.810822
   3925,       13611.,           0.,   400.864868
   3926,       13611.,           0.,   425.918915
   3927,       13611.,           0.,   450.972961
   3928,       13611.,           0.,   476.027039
   3929,       13611.,           0.,   501.081085
   3930,       13611.,           0.,   526.135132
   3931,       13611.,           0.,   551.189209
   3932,       13611.,           0.,   576.243225
   3933,       13611.,           0.,   601.297302
   3934,       13611.,           0.,   626.351379
   3935,       13611.,           0.,   651.405396
   3936,       13611.,           0.,   676.459473
   3937,       13611.,           0.,   701.513489
   3938,       13611.,           0.,   726.567566
   3939,       13611.,           0.,   751.621643
   3940,       13611.,           0.,   776.675659
   3941,       13611.,           0.,   801.729736
   3942,       13611.,           0.,   826.783813
   3943,       13611.,           0.,    851.83783
   3944,       13611.,           0.,   876.891907
   3945,       13611.,           0.,   901.945923
   3946,        9074.,   2134.36011,   441.850464
   3947,        9074.,   2134.36011,   466.930908
   3948,        9074.,   2134.36011,   492.011383
   3949,        9074.,   2134.36011,   517.091858
   3950,        9074.,   2134.36011,   542.172302
   3951,        9074.,   2134.36011,   567.252747
   3952,        9074.,   2134.36011,   592.333252
   3953,        9074.,   2134.36011,   617.413696
   3954,        9074.,   2134.36011,   642.494141
   3955,        9074.,   2134.36011,   667.574585
   3956,        9074.,   2134.36011,    692.65509
   3957,        9074.,   2134.36011,   717.735535
   3958,        9074.,   2134.36011,   742.815979
   3959,        9074.,   2134.36011,   767.896484
   3960,        9074.,   2134.36011,   792.976929
   3961,        9074.,   2134.36011,   818.057373
   3962,        9074.,   2134.36011,   843.137817
   3963,        9074.,   2134.36011,   868.218323
   3964,        9074.,   2134.36011,   893.298767
   3965,        9074.,   2134.36011,   918.379211
   3966,        9074.,   2134.36011,   943.459717
   3967,        9074.,   2134.36011,   968.540161
   3968,        9074.,   2134.36011,   993.620605
   3969,        9074.,   2134.36011,   1018.70105
   3970,        9074.,   2134.36011,   1043.78149
   3971,        9074.,   2134.36011,   1068.86206
   3972,        9074.,   2134.36011,    1093.9425
   3973,        9074.,   2134.36011,   1119.02295
   3974,        9074.,   2134.36011,   1144.10339
   3975,        9074.,   2134.36011,   1169.18384
   3976,        9074.,   2134.36011,   1194.26428
   3977,        9074.,   2134.36011,   1219.34473
   3978,        9074.,   2134.36011,   1244.42517
   3979,        9074.,   2134.36011,   1269.50574
   3980,        9074.,   2134.36011,   1294.58618
   3981,        9074.,   2134.36011,   1319.66663
   3982,        9074.,   2134.36011,   1344.74707
   3983,        9074.,   2134.36011,   1369.82751
   3984,        9074.,   2134.36011,   1394.90796
   3985,        9074.,   2134.36011,    1419.9884
   3986,        9074.,   2134.36011,   1445.06897
   3987,        9074.,   2134.36011,   1470.14941
   3988,        9074.,   2134.36011,   1495.22986
   3989,        9074.,   2134.36011,    1520.3103
   3990,        9074.,   2134.36011,   1545.39075
   3991,        9074.,   2134.36011,   1570.47119
   3992,        9074.,   2134.36011,   1595.55164
   3993,        9074.,   2134.36011,    1620.6322
   3994,        9074.,   2134.36011,   1645.71265
   3995,        9074.,   2134.36011,   1670.79309
   3996,        9074.,   2134.36011,   1695.87354
   3997,        9074.,   2134.36011,   1720.95398
   3998,        9074.,   2134.36011,   1746.03442
   3999,        9074.,   2134.36011,   1771.11487
   4000,        9074.,   2134.36011,   1796.19543
   4001,        9074.,   2134.36011,   1821.27588
   4002,        9074.,   2134.36011,   1846.35632
   4003,        9074.,   2134.36011,   1871.43677
   4004,        9074.,   2134.36011,   1896.51721
   4005,        9074.,   2134.36011,   1921.59766
   4006,        9074.,   2134.36011,    1946.6781
   4007,        9074.,   2134.36011,   1971.75867
   4008,        9074.,   2134.36011,   1996.83911
   4009,        9074.,   2134.36011,   2021.91956
   4010,        9074.,   2134.36011,   24.5158825
   4011,        9074.,   2134.36011,    49.031765
   4012,        9074.,   2134.36011,   73.5476456
   4013,        9074.,   2134.36011,     98.06353
   4014,        9074.,   2134.36011,   122.579414
   4015,        9074.,   2134.36011,   147.095291
   4016,        9074.,   2134.36011,   171.611176
   4017,        9074.,   2134.36011,    196.12706
   4018,        9074.,   2134.36011,   220.642944
   4019,        9074.,   2134.36011,   245.158829
   4020,        9074.,   2134.36011,   269.674713
   4021,        9074.,   2134.36011,   294.190582
   4022,        9074.,   2134.36011,   318.706482
   4023,        9074.,   2134.36011,   343.222351
   4024,        9074.,   2134.36011,    367.73822
   4025,        9074.,   2134.36011,    392.25412
   4026,        9074.,           0.,         952.
   4027,        9074.,           0.,         977.
   4028,        9074.,           0.,        1002.
   4029,        9074.,           0.,        1027.
   4030,        9074.,           0.,   25.0540543
   4031,        9074.,           0.,   50.1081085
   4032,        9074.,           0.,   75.1621628
   4033,        9074.,           0.,   100.216217
   4034,        9074.,           0.,   125.270271
   4035,        9074.,           0.,   150.324326
   4036,        9074.,           0.,   175.378372
   4037,        9074.,           0.,   200.432434
   4038,        9074.,           0.,   225.486481
   4039,        9074.,           0.,   250.540543
   4040,        9074.,           0.,   275.594604
   4041,        9074.,           0.,   300.648651
   4042,        9074.,           0.,   325.702698
   4043,        9074.,           0.,   350.756744
   4044,        9074.,           0.,   375.810822
   4045,        9074.,           0.,   400.864868
   4046,        9074.,           0.,   425.918915
   4047,        9074.,           0.,   450.972961
   4048,        9074.,           0.,   476.027039
   4049,        9074.,           0.,   501.081085
   4050,        9074.,           0.,   526.135132
   4051,        9074.,           0.,   551.189209
   4052,        9074.,           0.,   576.243225
   4053,        9074.,           0.,   601.297302
   4054,        9074.,           0.,   626.351379
   4055,        9074.,           0.,   651.405396
   4056,        9074.,           0.,   676.459473
   4057,        9074.,           0.,   701.513489
   4058,        9074.,           0.,   726.567566
   4059,        9074.,           0.,   751.621643
   4060,        9074.,           0.,   776.675659
   4061,        9074.,           0.,   801.729736
   4062,        9074.,           0.,   826.783813
   4063,        9074.,           0.,    851.83783
   4064,        9074.,           0.,   876.891907
   4065,        9074.,           0.,   901.945923
   4066,        4537.,   2134.36011,   441.850464
   4067,        4537.,   2134.36011,   466.930908
   4068,        4537.,   2134.36011,   492.011383
   4069,        4537.,   2134.36011,   517.091858
   4070,        4537.,   2134.36011,   542.172302
   4071,        4537.,   2134.36011,   567.252747
   4072,        4537.,   2134.36011,   592.333252
   4073,        4537.,   2134.36011,   617.413696
   4074,        4537.,   2134.36011,   642.494141
   4075,        4537.,   2134.36011,   667.574585
   4076,        4537.,   2134.36011,    692.65509
   4077,        4537.,   2134.36011,   717.735535
   4078,        4537.,   2134.36011,   742.815979
   4079,        4537.,   2134.36011,   767.896484
   4080,        4537.,   2134.36011,   792.976929
   4081,        4537.,   2134.36011,   818.057373
   4082,        4537.,   2134.36011,   843.137817
   4083,        4537.,   2134.36011,   868.218323
   4084,        4537.,   2134.36011,   893.298767
   4085,        4537.,   2134.36011,   918.379211
   4086,        4537.,   2134.36011,   943.459717
   4087,        4537.,   2134.36011,   968.540161
   4088,        4537.,   2134.36011,   993.620605
   4089,        4537.,   2134.36011,   1018.70105
   4090,        4537.,   2134.36011,   1043.78149
   4091,        4537.,   2134.36011,   1068.86206
   4092,        4537.,   2134.36011,    1093.9425
   4093,        4537.,   2134.36011,   1119.02295
   4094,        4537.,   2134.36011,   1144.10339
   4095,        4537.,   2134.36011,   1169.18384
   4096,        4537.,   2134.36011,   1194.26428
   4097,        4537.,   2134.36011,   1219.34473
   4098,        4537.,   2134.36011,   1244.42517
   4099,        4537.,   2134.36011,   1269.50574
   4100,        4537.,   2134.36011,   1294.58618
   4101,        4537.,   2134.36011,   1319.66663
   4102,        4537.,   2134.36011,   1344.74707
   4103,        4537.,   2134.36011,   1369.82751
   4104,        4537.,   2134.36011,   1394.90796
   4105,        4537.,   2134.36011,    1419.9884
   4106,        4537.,   2134.36011,   1445.06897
   4107,        4537.,   2134.36011,   1470.14941
   4108,        4537.,   2134.36011,   1495.22986
   4109,        4537.,   2134.36011,    1520.3103
   4110,        4537.,   2134.36011,   1545.39075
   4111,        4537.,   2134.36011,   1570.47119
   4112,        4537.,   2134.36011,   1595.55164
   4113,        4537.,   2134.36011,    1620.6322
   4114,        4537.,   2134.36011,   1645.71265
   4115,        4537.,   2134.36011,   1670.79309
   4116,        4537.,   2134.36011,   1695.87354
   4117,        4537.,   2134.36011,   1720.95398
   4118,        4537.,   2134.36011,   1746.03442
   4119,        4537.,   2134.36011,   1771.11487
   4120,        4537.,   2134.36011,   1796.19543
   4121,        4537.,   2134.36011,   1821.27588
   4122,        4537.,   2134.36011,   1846.35632
   4123,        4537.,   2134.36011,   1871.43677
   4124,        4537.,   2134.36011,   1896.51721
   4125,        4537.,   2134.36011,   1921.59766
   4126,        4537.,   2134.36011,    1946.6781
   4127,        4537.,   2134.36011,   1971.75867
   4128,        4537.,   2134.36011,   1996.83911
   4129,        4537.,   2134.36011,   2021.91956
   4130,        4537.,   2134.36011,   24.5158825
   4131,        4537.,   2134.36011,    49.031765
   4132,        4537.,   2134.36011,   73.5476456
   4133,        4537.,   2134.36011,     98.06353
   4134,        4537.,   2134.36011,   122.579414
   4135,        4537.,   2134.36011,   147.095291
   4136,        4537.,   2134.36011,   171.611176
   4137,        4537.,   2134.36011,    196.12706
   4138,        4537.,   2134.36011,   220.642944
   4139,        4537.,   2134.36011,   245.158829
   4140,        4537.,   2134.36011,   269.674713
   4141,        4537.,   2134.36011,   294.190582
   4142,        4537.,   2134.36011,   318.706482
   4143,        4537.,   2134.36011,   343.222351
   4144,        4537.,   2134.36011,    367.73822
   4145,        4537.,   2134.36011,    392.25412
   4146,        4537.,           0.,         952.
   4147,        4537.,           0.,         977.
   4148,        4537.,           0.,        1002.
   4149,        4537.,           0.,        1027.
   4150,        4537.,           0.,   25.0540543
   4151,        4537.,           0.,   50.1081085
   4152,        4537.,           0.,   75.1621628
   4153,        4537.,           0.,   100.216217
   4154,        4537.,           0.,   125.270271
   4155,        4537.,           0.,   150.324326
   4156,        4537.,           0.,   175.378372
   4157,        4537.,           0.,   200.432434
   4158,        4537.,           0.,   225.486481
   4159,        4537.,           0.,   250.540543
   4160,        4537.,           0.,   275.594604
   4161,        4537.,           0.,   300.648651
   4162,        4537.,           0.,   325.702698
   4163,        4537.,           0.,   350.756744
   4164,        4537.,           0.,   375.810822
   4165,        4537.,           0.,   400.864868
   4166,        4537.,           0.,   425.918915
   4167,        4537.,           0.,   450.972961
   4168,        4537.,           0.,   476.027039
   4169,        4537.,           0.,   501.081085
   4170,        4537.,           0.,   526.135132
   4171,        4537.,           0.,   551.189209
   4172,        4537.,           0.,   576.243225
   4173,        4537.,           0.,   601.297302
   4174,        4537.,           0.,   626.351379
   4175,        4537.,           0.,   651.405396
   4176,        4537.,           0.,   676.459473
   4177,        4537.,           0.,   701.513489
   4178,        4537.,           0.,   726.567566
   4179,        4537.,           0.,   751.621643
   4180,        4537.,           0.,   776.675659
   4181,        4537.,           0.,   801.729736
   4182,        4537.,           0.,   826.783813
   4183,        4537.,           0.,    851.83783
   4184,        4537.,           0.,   876.891907
   4185,        4537.,           0.,   901.945923
   4186,           0.,   2134.36011,   441.850464
   4187,           0.,   2134.36011,   466.930908
   4188,           0.,   2134.36011,   492.011383
   4189,           0.,   2134.36011,   517.091858
   4190,           0.,   2134.36011,   542.172302
   4191,           0.,   2134.36011,   567.252747
   4192,           0.,   2134.36011,   592.333252
   4193,           0.,   2134.36011,   617.413696
   4194,           0.,   2134.36011,   642.494141
   4195,           0.,   2134.36011,   667.574585
   4196,           0.,   2134.36011,    692.65509
   4197,           0.,   2134.36011,   717.735535
   4198,           0.,   2134.36011,   742.815979
   4199,           0.,   2134.36011,   767.896484
   4200,           0.,   2134.36011,   792.976929
   4201,           0.,   2134.36011,   818.057373
   4202,           0.,   2134.36011,   843.137817
   4203,           0.,   2134.36011,   868.218323
   4204,           0.,   2134.36011,   893.298767
   4205,           0.,   2134.36011,   918.379211
   4206,           0.,   2134.36011,   943.459717
   4207,           0.,   2134.36011,   968.540161
   4208,           0.,   2134.36011,   993.620605
   4209,           0.,   2134.36011,   1018.70105
   4210,           0.,   2134.36011,   1043.78149
   4211,           0.,   2134.36011,   1068.86206
   4212,           0.,   2134.36011,    1093.9425
   4213,           0.,   2134.36011,   1119.02295
   4214,           0.,   2134.36011,   1144.10339
   4215,           0.,   2134.36011,   1169.18384
   4216,           0.,   2134.36011,   1194.26428
   4217,           0.,   2134.36011,   1219.34473
   4218,           0.,   2134.36011,   1244.42517
   4219,           0.,   2134.36011,   1269.50574
   4220,           0.,   2134.36011,   1294.58618
   4221,           0.,   2134.36011,   1319.66663
   4222,           0.,   2134.36011,   1344.74707
   4223,           0.,   2134.36011,   1369.82751
   4224,           0.,   2134.36011,   1394.90796
   4225,           0.,   2134.36011,    1419.9884
   4226,           0.,   2134.36011,   1445.06897
   4227,           0.,   2134.36011,   1470.14941
   4228,           0.,   2134.36011,   1495.22986
   4229,           0.,   2134.36011,    1520.3103
   4230,           0.,   2134.36011,   1545.39075
   4231,           0.,   2134.36011,   1570.47119
   4232,           0.,   2134.36011,   1595.55164
   4233,           0.,   2134.36011,    1620.6322
   4234,           0.,   2134.36011,   1645.71265
   4235,           0.,   2134.36011,   1670.79309
   4236,           0.,   2134.36011,   1695.87354
   4237,           0.,   2134.36011,   1720.95398
   4238,           0.,   2134.36011,   1746.03442
   4239,           0.,   2134.36011,   1771.11487
   4240,           0.,   2134.36011,   1796.19543
   4241,           0.,   2134.36011,   1821.27588
   4242,           0.,   2134.36011,   1846.35632
   4243,           0.,   2134.36011,   1871.43677
   4244,           0.,   2134.36011,   1896.51721
   4245,           0.,   2134.36011,   1921.59766
   4246,           0.,   2134.36011,    1946.6781
   4247,           0.,   2134.36011,   1971.75867
   4248,           0.,   2134.36011,   1996.83911
   4249,           0.,   2134.36011,   2021.91956
   4250,           0.,   2134.36011,   24.5158825
   4251,           0.,   2134.36011,    49.031765
   4252,           0.,   2134.36011,   73.5476456
   4253,           0.,   2134.36011,     98.06353
   4254,           0.,   2134.36011,   122.579414
   4255,           0.,   2134.36011,   147.095291
   4256,           0.,   2134.36011,   171.611176
   4257,           0.,   2134.36011,    196.12706
   4258,           0.,   2134.36011,   220.642944
   4259,           0.,   2134.36011,   245.158829
   4260,           0.,   2134.36011,   269.674713
   4261,           0.,   2134.36011,   294.190582
   4262,           0.,   2134.36011,   318.706482
   4263,           0.,   2134.36011,   343.222351
   4264,           0.,   2134.36011,    367.73822
   4265,           0.,   2134.36011,    392.25412
   4266,           0.,           0.,         952.
   4267,           0.,           0.,         977.
   4268,           0.,           0.,        1002.
   4269,           0.,           0.,        1027.
   4270,           0.,           0.,   25.0540543
   4271,           0.,           0.,   50.1081085
   4272,           0.,           0.,   75.1621628
   4273,           0.,           0.,   100.216217
   4274,           0.,           0.,   125.270271
   4275,           0.,           0.,   150.324326
   4276,           0.,           0.,   175.378372
   4277,           0.,           0.,   200.432434
   4278,           0.,           0.,   225.486481
   4279,           0.,           0.,   250.540543
   4280,           0.,           0.,   275.594604
   4281,           0.,           0.,   300.648651
   4282,           0.,           0.,   325.702698
   4283,           0.,           0.,   350.756744
   4284,           0.,           0.,   375.810822
   4285,           0.,           0.,   400.864868
   4286,           0.,           0.,   425.918915
   4287,           0.,           0.,   450.972961
   4288,           0.,           0.,   476.027039
   4289,           0.,           0.,   501.081085
   4290,           0.,           0.,   526.135132
   4291,           0.,           0.,   551.189209
   4292,           0.,           0.,   576.243225
   4293,           0.,           0.,   601.297302
   4294,           0.,           0.,   626.351379
   4295,           0.,           0.,   651.405396
   4296,           0.,           0.,   676.459473
   4297,           0.,           0.,   701.513489
   4298,           0.,           0.,   726.567566
   4299,           0.,           0.,   751.621643
   4300,           0.,           0.,   776.675659
   4301,           0.,           0.,   801.729736
   4302,           0.,           0.,   826.783813
   4303,           0.,           0.,    851.83783
   4304,           0.,           0.,   876.891907
   4305,           0.,           0.,   901.945923
   4306,       18148.,   24.2540913,   921.201904
   4307,       18148.,   48.5081825,    915.40387
   4308,       18148.,   72.7622757,   909.605774
   4309,       18148.,   97.0163651,   903.807739
   4310,       18148.,   121.270454,   898.009644
   4311,       18148.,   145.524551,   892.211609
   4312,       18148.,   169.778641,   886.413513
   4313,       18148.,    194.03273,   880.615479
   4314,       18148.,   218.286819,   874.817383
   4315,       18148.,   242.540909,   869.019348
   4316,       18148.,   266.795013,   863.221252
   4317,       18148.,   291.049103,   857.423157
   4318,       18148.,   315.303192,   851.625122
   4319,       18148.,   339.557281,   845.827026
   4320,       18148.,   363.811371,   840.028992
   4321,       18148.,    388.06546,   834.230896
   4322,       18148.,    412.31955,   828.432861
   4323,       18148.,   436.573639,   822.634766
   4324,       18148.,   460.827728,   816.836731
   4325,       18148.,   485.081818,   811.038635
   4326,       18148.,   509.335907,    805.24054
   4327,       18148.,   533.590027,   799.442505
   4328,       18148.,   557.844116,   793.644409
   4329,       18148.,   582.098206,   787.846375
   4330,       18148.,   606.352295,   782.048279
   4331,       18148.,   630.606384,   776.250244
   4332,       18148.,   654.860474,   770.452148
   4333,       18148.,   679.114563,   764.654114
   4334,       18148.,   703.368652,   758.856018
   4335,       18148.,   727.622742,   753.057983
   4336,       18148.,   751.876831,   747.259888
   4337,       18148.,    776.13092,   741.461792
   4338,       18148.,    800.38501,   735.663757
   4339,       18148.,   824.639099,   729.865662
   4340,       18148.,   848.893188,   724.067627
   4341,       18148.,   873.147278,   718.269531
   4342,       18148.,   897.401367,   712.471497
   4343,       18148.,   921.655457,   706.673401
   4344,       18148.,   945.909546,   700.875366
   4345,       18148.,   970.163635,   695.077271
   4346,       18148.,   994.417725,   689.279175
   4347,       18148.,   1018.67181,    683.48114
   4348,       18148.,    1042.9259,   677.683044
   4349,       18148.,   1067.18005,    671.88501
   4350,       18148.,   1091.43408,   666.086914
   4351,       18148.,   1115.68823,   660.288879
   4352,       18148.,   1139.94226,   654.490784
   4353,       18148.,   1164.19641,   648.692749
   4354,       18148.,   1188.45044,   642.894653
   4355,       18148.,   1212.70459,   637.096619
   4356,       18148.,   1236.95862,   631.298523
   4357,       18148.,   1261.21277,   625.500427
   4358,       18148.,    1285.4668,   619.702393
   4359,       18148.,   1309.72095,   613.904297
   4360,       18148.,   1333.97498,   608.106262
   4361,       18148.,   1358.22913,   602.308167
   4362,       18148.,   1382.48315,   596.510132
   4363,       18148.,    1406.7373,   590.712036
   4364,       18148.,   1430.99133,   584.914001
   4365,       18148.,   1455.24548,   579.115906
   4366,       18148.,   1479.49951,   573.317871
   4367,       18148.,   1503.75366,   567.519775
   4368,       18148.,   1528.00769,    561.72168
   4369,       18148.,   1552.26184,   555.923645
   4370,       18148.,   1576.51587,   550.125549
   4371,       18148.,   1600.77002,   544.327515
   4372,       18148.,   1625.02405,   538.529419
   4373,       18148.,    1649.2782,   532.731384
   4374,       18148.,   1673.53223,   526.933289
   4375,       18148.,   1697.78638,   521.135254
   4376,       18148.,   1722.04041,   515.337158
   4377,       18148.,   1746.29456,   509.539093
   4378,       18148.,   1770.54858,   503.741028
   4379,       18148.,   1794.80273,   497.942963
   4380,       18148.,   1819.05676,   492.144897
   4381,       18148.,   1843.31091,   486.346832
   4382,       18148.,   1867.56494,   480.548737
   4383,       18148.,   1891.81909,   474.750671
   4384,       18148.,   1916.07324,   468.952606
   4385,       18148.,   1940.32727,   463.154541
   4386,       18148.,   1964.58142,   457.356476
   4387,       18148.,   1988.83545,   451.558411
   4388,       18148.,    2013.0896,   445.760345
   4389,       18148.,   2037.34363,    439.96228
   4390,       18148.,   2061.59766,   434.164215
   4391,       18148.,   2085.85181,    428.36615
   4392,       18148.,   2110.10596,   422.568054
   4393,       13611.,   24.2540913,   921.201904
   4394,       13611.,   48.5081825,    915.40387
   4395,       13611.,   72.7622757,   909.605774
   4396,       13611.,   97.0163651,   903.807739
   4397,       13611.,   121.270454,   898.009644
   4398,       13611.,   145.524551,   892.211609
   4399,       13611.,   169.778641,   886.413513
   4400,       13611.,    194.03273,   880.615479
   4401,       13611.,   218.286819,   874.817383
   4402,       13611.,   242.540909,   869.019348
   4403,       13611.,   266.795013,   863.221252
   4404,       13611.,   291.049103,   857.423157
   4405,       13611.,   315.303192,   851.625122
   4406,       13611.,   339.557281,   845.827026
   4407,       13611.,   363.811371,   840.028992
   4408,       13611.,    388.06546,   834.230896
   4409,       13611.,    412.31955,   828.432861
   4410,       13611.,   436.573639,   822.634766
   4411,       13611.,   460.827728,   816.836731
   4412,       13611.,   485.081818,   811.038635
   4413,       13611.,   509.335907,    805.24054
   4414,       13611.,   533.590027,   799.442505
   4415,       13611.,   557.844116,   793.644409
   4416,       13611.,   582.098206,   787.846375
   4417,       13611.,   606.352295,   782.048279
   4418,       13611.,   630.606384,   776.250244
   4419,       13611.,   654.860474,   770.452148
   4420,       13611.,   679.114563,   764.654114
   4421,       13611.,   703.368652,   758.856018
   4422,       13611.,   727.622742,   753.057983
   4423,       13611.,   751.876831,   747.259888
   4424,       13611.,    776.13092,   741.461792
   4425,       13611.,    800.38501,   735.663757
   4426,       13611.,   824.639099,   729.865662
   4427,       13611.,   848.893188,   724.067627
   4428,       13611.,   873.147278,   718.269531
   4429,       13611.,   897.401367,   712.471497
   4430,       13611.,   921.655457,   706.673401
   4431,       13611.,   945.909546,   700.875366
   4432,       13611.,   970.163635,   695.077271
   4433,       13611.,   994.417725,   689.279175
   4434,       13611.,   1018.67181,    683.48114
   4435,       13611.,    1042.9259,   677.683044
   4436,       13611.,   1067.18005,    671.88501
   4437,       13611.,   1091.43408,   666.086914
   4438,       13611.,   1115.68823,   660.288879
   4439,       13611.,   1139.94226,   654.490784
   4440,       13611.,   1164.19641,   648.692749
   4441,       13611.,   1188.45044,   642.894653
   4442,       13611.,   1212.70459,   637.096619
   4443,       13611.,   1236.95862,   631.298523
   4444,       13611.,   1261.21277,   625.500427
   4445,       13611.,    1285.4668,   619.702393
   4446,       13611.,   1309.72095,   613.904297
   4447,       13611.,   1333.97498,   608.106262
   4448,       13611.,   1358.22913,   602.308167
   4449,       13611.,   1382.48315,   596.510132
   4450,       13611.,    1406.7373,   590.712036
   4451,       13611.,   1430.99133,   584.914001
   4452,       13611.,   1455.24548,   579.115906
   4453,       13611.,   1479.49951,   573.317871
   4454,       13611.,   1503.75366,   567.519775
   4455,       13611.,   1528.00769,    561.72168
   4456,       13611.,   1552.26184,   555.923645
   4457,       13611.,   1576.51587,   550.125549
   4458,       13611.,   1600.77002,   544.327515
   4459,       13611.,   1625.02405,   538.529419
   4460,       13611.,    1649.2782,   532.731384
   4461,       13611.,   1673.53223,   526.933289
   4462,       13611.,   1697.78638,   521.135254
   4463,       13611.,   1722.04041,   515.337158
   4464,       13611.,   1746.29456,   509.539093
   4465,       13611.,   1770.54858,   503.741028
   4466,       13611.,   1794.80273,   497.942963
   4467,       13611.,   1819.05676,   492.144897
   4468,       13611.,   1843.31091,   486.346832
   4469,       13611.,   1867.56494,   480.548737
   4470,       13611.,   1891.81909,   474.750671
   4471,       13611.,   1916.07324,   468.952606
   4472,       13611.,   1940.32727,   463.154541
   4473,       13611.,   1964.58142,   457.356476
   4474,       13611.,   1988.83545,   451.558411
   4475,       13611.,    2013.0896,   445.760345
   4476,       13611.,   2037.34363,    439.96228
   4477,       13611.,   2061.59766,   434.164215
   4478,       13611.,   2085.85181,    428.36615
   4479,       13611.,   2110.10596,   422.568054
   4480,        9074.,   24.2540913,   921.201904
   4481,        9074.,   48.5081825,    915.40387
   4482,        9074.,   72.7622757,   909.605774
   4483,        9074.,   97.0163651,   903.807739
   4484,        9074.,   121.270454,   898.009644
   4485,        9074.,   145.524551,   892.211609
   4486,        9074.,   169.778641,   886.413513
   4487,        9074.,    194.03273,   880.615479
   4488,        9074.,   218.286819,   874.817383
   4489,        9074.,   242.540909,   869.019348
   4490,        9074.,   266.795013,   863.221252
   4491,        9074.,   291.049103,   857.423157
   4492,        9074.,   315.303192,   851.625122
   4493,        9074.,   339.557281,   845.827026
   4494,        9074.,   363.811371,   840.028992
   4495,        9074.,    388.06546,   834.230896
   4496,        9074.,    412.31955,   828.432861
   4497,        9074.,   436.573639,   822.634766
   4498,        9074.,   460.827728,   816.836731
   4499,        9074.,   485.081818,   811.038635
   4500,        9074.,   509.335907,    805.24054
   4501,        9074.,   533.590027,   799.442505
   4502,        9074.,   557.844116,   793.644409
   4503,        9074.,   582.098206,   787.846375
   4504,        9074.,   606.352295,   782.048279
   4505,        9074.,   630.606384,   776.250244
   4506,        9074.,   654.860474,   770.452148
   4507,        9074.,   679.114563,   764.654114
   4508,        9074.,   703.368652,   758.856018
   4509,        9074.,   727.622742,   753.057983
   4510,        9074.,   751.876831,   747.259888
   4511,        9074.,    776.13092,   741.461792
   4512,        9074.,    800.38501,   735.663757
   4513,        9074.,   824.639099,   729.865662
   4514,        9074.,   848.893188,   724.067627
   4515,        9074.,   873.147278,   718.269531
   4516,        9074.,   897.401367,   712.471497
   4517,        9074.,   921.655457,   706.673401
   4518,        9074.,   945.909546,   700.875366
   4519,        9074.,   970.163635,   695.077271
   4520,        9074.,   994.417725,   689.279175
   4521,        9074.,   1018.67181,    683.48114
   4522,        9074.,    1042.9259,   677.683044
   4523,        9074.,   1067.18005,    671.88501
   4524,        9074.,   1091.43408,   666.086914
   4525,        9074.,   1115.68823,   660.288879
   4526,        9074.,   1139.94226,   654.490784
   4527,        9074.,   1164.19641,   648.692749
   4528,        9074.,   1188.45044,   642.894653
   4529,        9074.,   1212.70459,   637.096619
   4530,        9074.,   1236.95862,   631.298523
   4531,        9074.,   1261.21277,   625.500427
   4532,        9074.,    1285.4668,   619.702393
   4533,        9074.,   1309.72095,   613.904297
   4534,        9074.,   1333.97498,   608.106262
   4535,        9074.,   1358.22913,   602.308167
   4536,        9074.,   1382.48315,   596.510132
   4537,        9074.,    1406.7373,   590.712036
   4538,        9074.,   1430.99133,   584.914001
   4539,        9074.,   1455.24548,   579.115906
   4540,        9074.,   1479.49951,   573.317871
   4541,        9074.,   1503.75366,   567.519775
   4542,        9074.,   1528.00769,    561.72168
   4543,        9074.,   1552.26184,   555.923645
   4544,        9074.,   1576.51587,   550.125549
   4545,        9074.,   1600.77002,   544.327515
   4546,        9074.,   1625.02405,   538.529419
   4547,        9074.,    1649.2782,   532.731384
   4548,        9074.,   1673.53223,   526.933289
   4549,        9074.,   1697.78638,   521.135254
   4550,        9074.,   1722.04041,   515.337158
   4551,        9074.,   1746.29456,   509.539093
   4552,        9074.,   1770.54858,   503.741028
   4553,        9074.,   1794.80273,   497.942963
   4554,        9074.,   1819.05676,   492.144897
   4555,        9074.,   1843.31091,   486.346832
   4556,        9074.,   1867.56494,   480.548737
   4557,        9074.,   1891.81909,   474.750671
   4558,        9074.,   1916.07324,   468.952606
   4559,        9074.,   1940.32727,   463.154541
   4560,        9074.,   1964.58142,   457.356476
   4561,        9074.,   1988.83545,   451.558411
   4562,        9074.,    2013.0896,   445.760345
   4563,        9074.,   2037.34363,    439.96228
   4564,        9074.,   2061.59766,   434.164215
   4565,        9074.,   2085.85181,    428.36615
   4566,        9074.,   2110.10596,   422.568054
   4567,        4537.,   24.2540913,   921.201904
   4568,        4537.,   48.5081825,    915.40387
   4569,        4537.,   72.7622757,   909.605774
   4570,        4537.,   97.0163651,   903.807739
   4571,        4537.,   121.270454,   898.009644
   4572,        4537.,   145.524551,   892.211609
   4573,        4537.,   169.778641,   886.413513
   4574,        4537.,    194.03273,   880.615479
   4575,        4537.,   218.286819,   874.817383
   4576,        4537.,   242.540909,   869.019348
   4577,        4537.,   266.795013,   863.221252
   4578,        4537.,   291.049103,   857.423157
   4579,        4537.,   315.303192,   851.625122
   4580,        4537.,   339.557281,   845.827026
   4581,        4537.,   363.811371,   840.028992
   4582,        4537.,    388.06546,   834.230896
   4583,        4537.,    412.31955,   828.432861
   4584,        4537.,   436.573639,   822.634766
   4585,        4537.,   460.827728,   816.836731
   4586,        4537.,   485.081818,   811.038635
   4587,        4537.,   509.335907,    805.24054
   4588,        4537.,   533.590027,   799.442505
   4589,        4537.,   557.844116,   793.644409
   4590,        4537.,   582.098206,   787.846375
   4591,        4537.,   606.352295,   782.048279
   4592,        4537.,   630.606384,   776.250244
   4593,        4537.,   654.860474,   770.452148
   4594,        4537.,   679.114563,   764.654114
   4595,        4537.,   703.368652,   758.856018
   4596,        4537.,   727.622742,   753.057983
   4597,        4537.,   751.876831,   747.259888
   4598,        4537.,    776.13092,   741.461792
   4599,        4537.,    800.38501,   735.663757
   4600,        4537.,   824.639099,   729.865662
   4601,        4537.,   848.893188,   724.067627
   4602,        4537.,   873.147278,   718.269531
   4603,        4537.,   897.401367,   712.471497
   4604,        4537.,   921.655457,   706.673401
   4605,        4537.,   945.909546,   700.875366
   4606,        4537.,   970.163635,   695.077271
   4607,        4537.,   994.417725,   689.279175
   4608,        4537.,   1018.67181,    683.48114
   4609,        4537.,    1042.9259,   677.683044
   4610,        4537.,   1067.18005,    671.88501
   4611,        4537.,   1091.43408,   666.086914
   4612,        4537.,   1115.68823,   660.288879
   4613,        4537.,   1139.94226,   654.490784
   4614,        4537.,   1164.19641,   648.692749
   4615,        4537.,   1188.45044,   642.894653
   4616,        4537.,   1212.70459,   637.096619
   4617,        4537.,   1236.95862,   631.298523
   4618,        4537.,   1261.21277,   625.500427
   4619,        4537.,    1285.4668,   619.702393
   4620,        4537.,   1309.72095,   613.904297
   4621,        4537.,   1333.97498,   608.106262
   4622,        4537.,   1358.22913,   602.308167
   4623,        4537.,   1382.48315,   596.510132
   4624,        4537.,    1406.7373,   590.712036
   4625,        4537.,   1430.99133,   584.914001
   4626,        4537.,   1455.24548,   579.115906
   4627,        4537.,   1479.49951,   573.317871
   4628,        4537.,   1503.75366,   567.519775
   4629,        4537.,   1528.00769,    561.72168
   4630,        4537.,   1552.26184,   555.923645
   4631,        4537.,   1576.51587,   550.125549
   4632,        4537.,   1600.77002,   544.327515
   4633,        4537.,   1625.02405,   538.529419
   4634,        4537.,    1649.2782,   532.731384
   4635,        4537.,   1673.53223,   526.933289
   4636,        4537.,   1697.78638,   521.135254
   4637,        4537.,   1722.04041,   515.337158
   4638,        4537.,   1746.29456,   509.539093
   4639,        4537.,   1770.54858,   503.741028
   4640,        4537.,   1794.80273,   497.942963
   4641,        4537.,   1819.05676,   492.144897
   4642,        4537.,   1843.31091,   486.346832
   4643,        4537.,   1867.56494,   480.548737
   4644,        4537.,   1891.81909,   474.750671
   4645,        4537.,   1916.07324,   468.952606
   4646,        4537.,   1940.32727,   463.154541
   4647,        4537.,   1964.58142,   457.356476
   4648,        4537.,   1988.83545,   451.558411
   4649,        4537.,    2013.0896,   445.760345
   4650,        4537.,   2037.34363,    439.96228
   4651,        4537.,   2061.59766,   434.164215
   4652,        4537.,   2085.85181,    428.36615
   4653,        4537.,   2110.10596,   422.568054
   4654,           0.,   24.2540913,   921.201904
   4655,           0.,   48.5081825,    915.40387
   4656,           0.,   72.7622757,   909.605774
   4657,           0.,   97.0163651,   903.807739
   4658,           0.,   121.270454,   898.009644
   4659,           0.,   145.524551,   892.211609
   4660,           0.,   169.778641,   886.413513
   4661,           0.,    194.03273,   880.615479
   4662,           0.,   218.286819,   874.817383
   4663,           0.,   242.540909,   869.019348
   4664,           0.,   266.795013,   863.221252
   4665,           0.,   291.049103,   857.423157
   4666,           0.,   315.303192,   851.625122
   4667,           0.,   339.557281,   845.827026
   4668,           0.,   363.811371,   840.028992
   4669,           0.,    388.06546,   834.230896
   4670,           0.,    412.31955,   828.432861
   4671,           0.,   436.573639,   822.634766
   4672,           0.,   460.827728,   816.836731
   4673,           0.,   485.081818,   811.038635
   4674,           0.,   509.335907,    805.24054
   4675,           0.,   533.590027,   799.442505
   4676,           0.,   557.844116,   793.644409
   4677,           0.,   582.098206,   787.846375
   4678,           0.,   606.352295,   782.048279
   4679,           0.,   630.606384,   776.250244
   4680,           0.,   654.860474,   770.452148
   4681,           0.,   679.114563,   764.654114
   4682,           0.,   703.368652,   758.856018
   4683,           0.,   727.622742,   753.057983
   4684,           0.,   751.876831,   747.259888
   4685,           0.,    776.13092,   741.461792
   4686,           0.,    800.38501,   735.663757
   4687,           0.,   824.639099,   729.865662
   4688,           0.,   848.893188,   724.067627
   4689,           0.,   873.147278,   718.269531
   4690,           0.,   897.401367,   712.471497
   4691,           0.,   921.655457,   706.673401
   4692,           0.,   945.909546,   700.875366
   4693,           0.,   970.163635,   695.077271
   4694,           0.,   994.417725,   689.279175
   4695,           0.,   1018.67181,    683.48114
   4696,           0.,    1042.9259,   677.683044
   4697,           0.,   1067.18005,    671.88501
   4698,           0.,   1091.43408,   666.086914
   4699,           0.,   1115.68823,   660.288879
   4700,           0.,   1139.94226,   654.490784
   4701,           0.,   1164.19641,   648.692749
   4702,           0.,   1188.45044,   642.894653
   4703,           0.,   1212.70459,   637.096619
   4704,           0.,   1236.95862,   631.298523
   4705,           0.,   1261.21277,   625.500427
   4706,           0.,    1285.4668,   619.702393
   4707,           0.,   1309.72095,   613.904297
   4708,           0.,   1333.97498,   608.106262
   4709,           0.,   1358.22913,   602.308167
   4710,           0.,   1382.48315,   596.510132
   4711,           0.,    1406.7373,   590.712036
   4712,           0.,   1430.99133,   584.914001
   4713,           0.,   1455.24548,   579.115906
   4714,           0.,   1479.49951,   573.317871
   4715,           0.,   1503.75366,   567.519775
   4716,           0.,   1528.00769,    561.72168
   4717,           0.,   1552.26184,   555.923645
   4718,           0.,   1576.51587,   550.125549
   4719,           0.,   1600.77002,   544.327515
   4720,           0.,   1625.02405,   538.529419
   4721,           0.,    1649.2782,   532.731384
   4722,           0.,   1673.53223,   526.933289
   4723,           0.,   1697.78638,   521.135254
   4724,           0.,   1722.04041,   515.337158
   4725,           0.,   1746.29456,   509.539093
   4726,           0.,   1770.54858,   503.741028
   4727,           0.,   1794.80273,   497.942963
   4728,           0.,   1819.05676,   492.144897
   4729,           0.,   1843.31091,   486.346832
   4730,           0.,   1867.56494,   480.548737
   4731,           0.,   1891.81909,   474.750671
   4732,           0.,   1916.07324,   468.952606
   4733,           0.,   1940.32727,   463.154541
   4734,           0.,   1964.58142,   457.356476
   4735,           0.,   1988.83545,   451.558411
   4736,           0.,    2013.0896,   445.760345
   4737,           0.,   2037.34363,    439.96228
   4738,           0.,   2061.59766,   434.164215
   4739,           0.,   2085.85181,    428.36615
   4740,           0.,   2110.10596,   422.568054
*Element, type=B31
 1,   1, 141
 2, 141, 142
 3, 142, 143
 4, 143, 144
 5, 144, 145
 6, 145, 146
 7, 146, 147
 8, 147, 148
 9, 148, 149
10, 149, 150
11, 150, 151
12, 151, 152
13, 152, 153
14, 153, 154
15, 154, 155
16, 155,   2
17,   2, 156
18, 156, 157
19, 157, 158
20, 158, 159
21, 159, 160
22, 160, 161
23, 161, 162
24, 162, 163
25, 163, 164
26, 164, 165
27, 165, 166
28, 166, 167
29, 167, 168
30, 168, 169
31, 169, 170
32, 170, 171
33, 171, 172
34, 172, 173
35, 173, 174
36, 174,   3
37,   4, 175
38, 175, 176
39, 176, 177
40, 177, 178
41, 178, 179
42, 179, 180
43, 180, 181
44, 181, 182
45, 182, 183
46, 183, 184
47, 184, 185
48, 185, 186
49, 186, 187
50, 187, 188
51, 188, 189
52, 189, 190
53, 190, 191
54, 191, 192
55, 192, 193
56, 193, 194
57, 194, 195
58, 195, 196
59, 196, 197
60, 197, 198
61, 198, 199
62, 199, 200
63, 200, 201
64, 201, 202
65, 202, 203
66, 203, 204
67, 204, 205
68, 205, 206
69, 206,   1
70,   5, 207
71, 207, 208
72, 208, 209
73, 209, 210
74, 210, 211
75, 211, 212
76, 212, 213
77, 213, 214
78, 214, 215
79, 215, 216
80, 216, 217
81, 217, 218
82, 218,   2
 83,   6, 219
 84, 219, 220
 85, 220, 221
 86, 221, 222
 87, 222, 223
 88, 223, 224
 89, 224, 225
 90, 225, 226
 91, 226, 227
 92, 227, 228
 93, 228, 229
 94, 229, 230
 95, 230, 231
 96, 231, 232
 97, 232, 233
 98, 233, 234
 99, 234, 235
100, 235, 236
101, 236, 237
102, 237, 238
103, 238, 239
104, 239, 240
105, 240, 241
106, 241, 242
107, 242, 243
108, 243, 244
109, 244, 245
110, 245, 246
111, 246, 247
112, 247, 248
113, 248, 249
114, 249, 250
115, 250,   4
116,   7, 251
117, 251, 252
118, 252, 253
119, 253, 254
120, 254, 255
121, 255, 256
122, 256, 257
123, 257, 258
124, 258, 259
125, 259, 260
126, 260, 261
127, 261, 262
128, 262, 263
129, 263, 264
130, 264, 265
131, 265, 266
132, 266, 267
133, 267, 268
134, 268, 269
135, 269, 270
136, 270, 271
137, 271, 272
138, 272, 273
139, 273, 274
140, 274, 275
141, 275, 276
142, 276, 277
143, 277, 278
144, 278, 279
145, 279, 280
146, 280, 281
147, 281, 282
148, 282,   6
149,   8, 283
150, 283, 284
151, 284, 285
152, 285, 286
153, 286, 287
154, 287, 288
155, 288, 289
156, 289, 290
157, 290, 291
158, 291, 292
159, 292, 293
160, 293, 294
161, 294, 295
162, 295, 296
163, 296, 297
164, 297, 298
165, 298, 299
166, 299, 300
167, 300, 301
168, 301, 302
169, 302, 303
170, 303, 304
171, 304, 305
172, 305, 306
173, 306, 307
174, 307, 308
175, 308, 309
176, 309, 310
177, 310, 311
178, 311, 312
179, 312, 313
180, 313, 314
181, 314,   7
182,   9, 315
183, 315, 316
184, 316, 317
185, 317, 318
186, 318, 319
187, 319, 320
188, 320, 321
189, 321, 322
190, 322, 323
191, 323, 324
192, 324, 325
193, 325, 326
194, 326, 327
195, 327, 328
196, 328, 329
197, 329, 330
198, 330, 331
199, 331, 332
200, 332, 333
201, 333, 334
202, 334, 335
203, 335, 336
204, 336, 337
205, 337, 338
206, 338, 339
207, 339, 340
208, 340, 341
209, 341, 342
210, 342, 343
211, 343, 344
212, 344, 345
213, 345, 346
214, 346,   8
215,  10, 347
216, 347, 348
217, 348, 349
218, 349, 350
219, 350, 351
220, 351, 352
221, 352, 353
222, 353, 354
223, 354, 355
224, 355, 356
225, 356, 357
226, 357, 358
227, 358, 359
228, 359, 360
229, 360, 361
230, 361, 362
231, 362, 363
232, 363, 364
233, 364, 365
234, 365, 366
235, 366, 367
236, 367, 368
237, 368, 369
238, 369, 370
239, 370, 371
240, 371, 372
241, 372, 373
242, 373, 374
243, 374, 375
244, 375, 376
245, 376, 377
246, 377, 378
247, 378,   9
248,  11, 379
249, 379, 380
250, 380, 381
251, 381, 382
252, 382, 383
253, 383, 384
254, 384, 385
255, 385, 386
256, 386, 387
257, 387, 388
258, 388, 389
259, 389, 390
260, 390, 391
261, 391, 392
262, 392, 393
263, 393, 394
264, 394, 395
265, 395, 396
266, 396, 397
267, 397, 398
268, 398, 399
269, 399, 400
270, 400, 401
271, 401, 402
272, 402, 403
273, 403, 404
274, 404, 405
275, 405, 406
276, 406, 407
277, 407, 408
278, 408, 409
279, 409, 410
280, 410,  10
281,  12, 411
282, 411, 412
283, 412, 413
284, 413, 414
285, 414, 415
286, 415, 416
287, 416, 417
288, 417, 418
289, 418, 419
290, 419, 420
291, 420, 421
292, 421, 422
293, 422, 423
294, 423, 424
295, 424, 425
296, 425, 426
297, 426, 427
298, 427, 428
299, 428, 429
300, 429, 430
301, 430, 431
302, 431, 432
303, 432, 433
304, 433, 434
305, 434, 435
306, 435, 436
307, 436, 437
308, 437, 438
309, 438, 439
310, 439, 440
311, 440, 441
312, 441, 442
313, 442,  11
314,  13, 443
315, 443, 444
316, 444, 445
317, 445, 446
318, 446, 447
319, 447, 448
320, 448, 449
321, 449, 450
322, 450, 451
323, 451, 452
324, 452, 453
325, 453, 454
326, 454, 455
327, 455, 456
328, 456, 457
329, 457, 458
330, 458, 459
331, 459, 460
332, 460, 461
333, 461, 462
334, 462, 463
335, 463, 464
336, 464, 465
337, 465, 466
338, 466, 467
339, 467, 468
340, 468, 469
341, 469, 470
342, 470, 471
343, 471, 472
344, 472, 473
345, 473, 474
346, 474,  12
347,  14, 475
348, 475, 476
349, 476, 477
350, 477, 478
351, 478, 479
352, 479, 480
353, 480, 481
354, 481, 482
355, 482, 483
356, 483, 484
357, 484, 485
358, 485, 486
359, 486, 487
360, 487, 488
361, 488, 489
362, 489, 490
363, 490, 491
364, 491, 492
365, 492, 493
366, 493, 494
367, 494, 495
368, 495, 496
369, 496, 497
370, 497, 498
371, 498, 499
372, 499, 500
373, 500, 501
374, 501, 502
375, 502, 503
376, 503, 504
377, 504, 505
378, 505, 506
379, 506,  13
380,  15, 507
381, 507, 508
382, 508, 509
383, 509, 510
384, 510, 511
385, 511, 512
386, 512, 513
387, 513, 514
388, 514, 515
389, 515, 516
390, 516, 517
391, 517, 518
392, 518, 519
393, 519, 520
394, 520, 521
395, 521,  14
396,  16, 522
397, 522, 523
398, 523, 524
399, 524, 525
400, 525, 526
401, 526, 527
402, 527, 528
403, 528, 529
404, 529, 530
405, 530, 531
406, 531, 532
407, 532, 533
408, 533, 534
409, 534, 535
410, 535, 536
411, 536,  15
412,  17, 537
413, 537, 538
414, 538, 539
415, 539, 540
416, 540, 541
417, 541, 542
418, 542, 543
419, 543, 544
420, 544, 545
421, 545, 546
422, 546, 547
423, 547, 548
424, 548, 549
425, 549, 550
426, 550, 551
427, 551, 552
428, 552, 553
429, 553, 554
430, 554, 555
431, 555, 556
432, 556, 557
433, 557, 558
434, 558, 559
435, 559, 560
436, 560, 561
437, 561, 562
438, 562, 563
439, 563, 564
440, 564, 565
441, 565, 566
442, 566, 567
443, 567, 568
444, 568,  16
445,  18, 569
446, 569, 570
447, 570, 571
448, 571, 572
449, 572, 573
450, 573, 574
451, 574, 575
452, 575, 576
453, 576, 577
454, 577, 578
455, 578, 579
456, 579, 580
457, 580, 581
458, 581, 582
459, 582, 583
460, 583, 584
461, 584, 585
462, 585, 586
463, 586, 587
464, 587, 588
465, 588, 589
466, 589, 590
467, 590, 591
468, 591, 592
469, 592, 593
470, 593, 594
471, 594, 595
472, 595, 596
473, 596, 597
474, 597, 598
475, 598, 599
476, 599, 600
477, 600,  17
478,  19, 601
479, 601, 602
480, 602, 603
481, 603, 604
482, 604, 605
483, 605, 606
484, 606, 607
485, 607, 608
486, 608, 609
487, 609, 610
488, 610, 611
489, 611, 612
490, 612, 613
491, 613, 614
492, 614, 615
493, 615, 616
494, 616, 617
495, 617, 618
496, 618, 619
497, 619, 620
498, 620, 621
499, 621, 622
500, 622, 623
501, 623, 624
502, 624, 625
503, 625, 626
504, 626, 627
505, 627, 628
506, 628, 629
507, 629, 630
508, 630, 631
509, 631, 632
510, 632,  18
511,  20, 633
512, 633, 634
513, 634, 635
514, 635, 636
515, 636, 637
516, 637, 638
517, 638, 639
518, 639, 640
519, 640, 641
520, 641, 642
521, 642, 643
522, 643, 644
523, 644, 645
524, 645, 646
525, 646, 647
526, 647, 648
527, 648, 649
528, 649, 650
529, 650, 651
530, 651, 652
531, 652, 653
532, 653, 654
533, 654, 655
534, 655, 656
535, 656, 657
536, 657, 658
537, 658, 659
538, 659, 660
539, 660, 661
540, 661, 662
541, 662, 663
542, 663, 664
543, 664,  19
544,  21, 665
545, 665, 666
546, 666, 667
547, 667, 668
548, 668, 669
549, 669, 670
550, 670, 671
551, 671, 672
552, 672, 673
553, 673, 674
554, 674, 675
555, 675, 676
556, 676, 677
557, 677, 678
558, 678, 679
559, 679, 680
560, 680, 681
561, 681, 682
562, 682, 683
563, 683, 684
564, 684, 685
565, 685, 686
566, 686, 687
567, 687, 688
568, 688, 689
569, 689, 690
570, 690, 691
571, 691, 692
572, 692, 693
573, 693, 694
574, 694, 695
575, 695, 696
576, 696,  20
577,  22, 697
578, 697, 698
579, 698, 699
580, 699, 700
581, 700, 701
582, 701, 702
583, 702, 703
584, 703, 704
585, 704, 705
586, 705, 706
587, 706, 707
588, 707, 708
589, 708, 709
590, 709, 710
591, 710, 711
592, 711, 712
593, 712, 713
594, 713, 714
595, 714, 715
596, 715, 716
597, 716, 717
598, 717, 718
599, 718, 719
600, 719, 720
601, 720, 721
602, 721, 722
603, 722, 723
604, 723, 724
605, 724, 725
606, 725, 726
607, 726, 727
608, 727, 728
609, 728,  21
610,  23, 729
611, 729, 730
612, 730, 731
613, 731, 732
614, 732, 733
615, 733, 734
616, 734, 735
617, 735, 736
618, 736, 737
619, 737, 738
620, 738, 739
621, 739, 740
622, 740, 741
623, 741, 742
624, 742, 743
625, 743, 744
626, 744, 745
627, 745, 746
628, 746, 747
629, 747, 748
630, 748, 749
631, 749, 750
632, 750, 751
633, 751, 752
634, 752, 753
635, 753, 754
636, 754, 755
637, 755, 756
638, 756, 757
639, 757, 758
640, 758, 759
641, 759, 760
642, 760,  22
643,  24, 761
644, 761, 762
645, 762, 763
646, 763, 764
647, 764, 765
648, 765, 766
649, 766, 767
650, 767, 768
651, 768, 769
652, 769, 770
653, 770, 771
654, 771, 772
655, 772, 773
656, 773, 774
657, 774, 775
658, 775, 776
659, 776, 777
660, 777, 778
661, 778, 779
662, 779, 780
663, 780, 781
664, 781, 782
665, 782, 783
666, 783, 784
667, 784, 785
668, 785, 786
669, 786, 787
670, 787, 788
671, 788, 789
672, 789, 790
673, 790, 791
674, 791, 792
675, 792,  23
676,  25, 793
677, 793, 794
678, 794, 795
679, 795, 796
680, 796, 797
681, 797, 798
682, 798, 799
683, 799, 800
684, 800, 801
685, 801, 802
686, 802, 803
687, 803, 804
688, 804, 805
689, 805, 806
690, 806, 807
691, 807, 808
692, 808, 809
693, 809, 810
694, 810, 811
695, 811, 812
696, 812, 813
697, 813, 814
698, 814, 815
699, 815, 816
700, 816, 817
701, 817, 818
702, 818, 819
703, 819, 820
704, 820, 821
705, 821, 822
706, 822, 823
707, 823, 824
708, 824,  24
709,  26, 825
710, 825, 826
711, 826, 827
712, 827, 828
713, 828, 829
714, 829, 830
715, 830, 831
716, 831, 832
717, 832, 833
718, 833, 834
719, 834, 835
720, 835, 836
721, 836, 837
722, 837, 838
723, 838, 839
724, 839, 840
725, 840, 841
726, 841, 842
727, 842, 843
728, 843, 844
729, 844, 845
730, 845, 846
731, 846, 847
732, 847, 848
733, 848, 849
734, 849, 850
735, 850, 851
736, 851, 852
737, 852, 853
738, 853, 854
739, 854, 855
740, 855, 856
741, 856,  25
742,  27, 857
743, 857, 858
744, 858, 859
745, 859, 860
746, 860, 861
747, 861, 862
748, 862, 863
749, 863, 864
750, 864, 865
751, 865, 866
752, 866, 867
753, 867, 868
754, 868, 869
755, 869, 870
756, 870, 871
757, 871,  26
758,  27, 872
759, 872, 873
760, 873, 874
761, 874, 875
762, 875, 876
763, 876, 877
764, 877, 878
765, 878, 879
766, 879, 880
767, 880, 881
768, 881, 882
769, 882, 883
770, 883, 884
771, 884, 885
772, 885, 886
773, 886, 887
774, 887, 888
775, 888, 889
776, 889, 890
777, 890,  28
778,  29, 891
779, 891, 892
780, 892, 893
781, 893, 894
782, 894, 895
783, 895, 896
784, 896, 897
785, 897, 898
786, 898, 899
787, 899, 900
788, 900, 901
789, 901, 902
790, 902, 903
791, 903, 904
792, 904, 905
793, 905, 906
794, 906, 907
795, 907, 908
796, 908, 909
797, 909, 910
798, 910, 911
799, 911, 912
800, 912, 913
801, 913, 914
802, 914, 915
803, 915, 916
804, 916,   5
805,  30, 917
806, 917, 918
807, 918, 919
808, 919, 920
809, 920, 921
810, 921, 922
811, 922, 923
812, 923, 924
813, 924, 925
814, 925, 926
815, 926, 927
816, 927, 928
817, 928, 929
818, 929, 930
819, 930, 931
820, 931, 932
821, 932, 933
822, 933, 934
823, 934, 935
824, 935, 936
825, 936, 937
826, 937, 938
827, 938, 939
828, 939, 940
829, 940, 941
830, 941, 942
831, 942, 943
832, 943, 944
833, 944, 945
834, 945, 946
835, 946, 947
836, 947, 948
837, 948, 949
838, 949, 950
839, 950, 951
840, 951, 952
841, 952, 953
842, 953, 954
843, 954, 955
844, 955,  29
845,  31, 956
846, 956, 957
847, 957, 958
848, 958, 959
849, 959, 960
850, 960, 961
851, 961, 962
852, 962, 963
853, 963, 964
854, 964, 965
855, 965, 966
856, 966, 967
857, 967, 968
858, 968, 969
859, 969, 970
860, 970, 971
861, 971, 972
862, 972, 973
863, 973, 974
864, 974, 975
865, 975, 976
866, 976, 977
867, 977, 978
868, 978, 979
869, 979, 980
870, 980, 981
871, 981,  30
872,  32, 982
873, 982, 983
874, 983, 984
875, 984, 985
876, 985, 986
877, 986, 987
878, 987, 988
879, 988, 989
880, 989, 990
881, 990, 991
882, 991, 992
883, 992, 993
884, 993,  31
885,   33,  994
886,  994,  995
887,  995,  996
888,  996,  997
889,  997,  998
890,  998,  999
891,  999, 1000
892, 1000, 1001
893, 1001, 1002
894, 1002, 1003
895, 1003, 1004
896, 1004, 1005
897, 1005, 1006
898, 1006, 1007
899, 1007, 1008
900, 1008, 1009
901, 1009, 1010
902, 1010, 1011
903, 1011, 1012
904, 1012,   32
905,    9, 1013
906, 1013, 1014
907, 1014, 1015
908, 1015, 1016
909, 1016, 1017
910, 1017, 1018
911, 1018, 1019
912, 1019, 1020
913, 1020, 1021
914, 1021, 1022
915, 1022, 1023
916, 1023, 1024
917, 1024, 1025
918, 1025, 1026
919, 1026, 1027
920, 1027, 1028
921, 1028, 1029
922, 1029, 1030
923, 1030, 1031
924, 1031,   34
925,   35, 1032
926, 1032, 1033
927, 1033, 1034
928, 1034, 1035
929, 1035, 1036
930, 1036, 1037
931, 1037, 1038
932, 1038, 1039
933, 1039, 1040
934, 1040, 1041
935, 1041, 1042
936, 1042, 1043
937, 1043,    9
938,   36, 1044
939, 1044, 1045
940, 1045, 1046
941, 1046, 1047
942, 1047, 1048
943, 1048, 1049
944, 1049, 1050
945, 1050, 1051
946, 1051, 1052
947, 1052, 1053
948, 1053, 1054
949, 1054, 1055
950, 1055, 1056
951, 1056, 1057
952, 1057, 1058
953, 1058, 1059
954, 1059, 1060
955, 1060, 1061
956, 1061, 1062
957, 1062, 1063
958, 1063, 1064
959, 1064, 1065
960, 1065, 1066
961, 1066, 1067
962, 1067, 1068
963, 1068, 1069
964, 1069,   35
 965,   37, 1070
 966, 1070, 1071
 967, 1071, 1072
 968, 1072, 1073
 969, 1073, 1074
 970, 1074, 1075
 971, 1075, 1076
 972, 1076, 1077
 973, 1077, 1078
 974, 1078, 1079
 975, 1079, 1080
 976, 1080, 1081
 977, 1081, 1082
 978, 1082, 1083
 979, 1083, 1084
 980, 1084, 1085
 981, 1085, 1086
 982, 1086, 1087
 983, 1087, 1088
 984, 1088, 1089
 985, 1089, 1090
 986, 1090, 1091
 987, 1091, 1092
 988, 1092, 1093
 989, 1093, 1094
 990, 1094, 1095
 991, 1095, 1096
 992, 1096, 1097
 993, 1097, 1098
 994, 1098, 1099
 995, 1099, 1100
 996, 1100, 1101
 997, 1101, 1102
 998, 1102, 1103
 999, 1103, 1104
1000, 1104, 1105
1001, 1105, 1106
1002, 1106, 1107
1003, 1107, 1108
1004, 1108,   36
1005,   38, 1109
1006, 1109, 1110
1007, 1110, 1111
1008, 1111, 1112
1009, 1112, 1113
1010, 1113, 1114
1011, 1114, 1115
1012, 1115, 1116
1013, 1116, 1117
1014, 1117, 1118
1015, 1118, 1119
1016, 1119, 1120
1017, 1120, 1121
1018, 1121, 1122
1019, 1122, 1123
1020, 1123, 1124
1021, 1124, 1125
1022, 1125, 1126
1023, 1126, 1127
1024, 1127, 1128
1025, 1128, 1129
1026, 1129, 1130
1027, 1130, 1131
1028, 1131, 1132
1029, 1132, 1133
1030, 1133, 1134
1031, 1134,   37
1032,   39, 1135
1033, 1135, 1136
1034, 1136, 1137
1035, 1137, 1138
1036, 1138, 1139
1037, 1139, 1140
1038, 1140, 1141
1039, 1141, 1142
1040, 1142, 1143
1041, 1143, 1144
1042, 1144, 1145
1043, 1145, 1146
1044, 1146,   38
1045,   40, 1147
1046, 1147, 1148
1047, 1148, 1149
1048, 1149, 1150
1049, 1150, 1151
1050, 1151, 1152
1051, 1152, 1153
1052, 1153, 1154
1053, 1154, 1155
1054, 1155, 1156
1055, 1156, 1157
1056, 1157, 1158
1057, 1158, 1159
1058, 1159, 1160
1059, 1160, 1161
1060, 1161, 1162
1061, 1162, 1163
1062, 1163, 1164
1063, 1164, 1165
1064, 1165,   39
1065,   15, 1166
1066, 1166, 1167
1067, 1167, 1168
1068, 1168, 1169
1069, 1169, 1170
1070, 1170, 1171
1071, 1171, 1172
1072, 1172, 1173
1073, 1173, 1174
1074, 1174, 1175
1075, 1175, 1176
1076, 1176, 1177
1077, 1177, 1178
1078, 1178, 1179
1079, 1179, 1180
1080, 1180, 1181
1081, 1181, 1182
1082, 1182, 1183
1083, 1183, 1184
1084, 1184,   41
1085,   42, 1185
1086, 1185, 1186
1087, 1186, 1187
1088, 1187, 1188
1089, 1188, 1189
1090, 1189, 1190
1091, 1190, 1191
1092, 1191, 1192
1093, 1192, 1193
1094, 1193, 1194
1095, 1194, 1195
1096, 1195, 1196
1097, 1196,   15
1098,   43, 1197
1099, 1197, 1198
1100, 1198, 1199
1101, 1199, 1200
1102, 1200, 1201
1103, 1201, 1202
1104, 1202, 1203
1105, 1203, 1204
1106, 1204, 1205
1107, 1205, 1206
1108, 1206, 1207
1109, 1207, 1208
1110, 1208, 1209
1111, 1209, 1210
1112, 1210, 1211
1113, 1211, 1212
1114, 1212, 1213
1115, 1213, 1214
1116, 1214, 1215
1117, 1215, 1216
1118, 1216, 1217
1119, 1217, 1218
1120, 1218, 1219
1121, 1219, 1220
1122, 1220, 1221
1123, 1221, 1222
1124, 1222,   42
1125,   44, 1223
1126, 1223, 1224
1127, 1224, 1225
1128, 1225, 1226
1129, 1226, 1227
1130, 1227, 1228
1131, 1228, 1229
1132, 1229, 1230
1133, 1230, 1231
1134, 1231, 1232
1135, 1232, 1233
1136, 1233, 1234
1137, 1234, 1235
1138, 1235, 1236
1139, 1236, 1237
1140, 1237, 1238
1141, 1238, 1239
1142, 1239, 1240
1143, 1240, 1241
1144, 1241, 1242
1145, 1242, 1243
1146, 1243, 1244
1147, 1244, 1245
1148, 1245, 1246
1149, 1246, 1247
1150, 1247, 1248
1151, 1248, 1249
1152, 1249, 1250
1153, 1250, 1251
1154, 1251, 1252
1155, 1252, 1253
1156, 1253, 1254
1157, 1254, 1255
1158, 1255, 1256
1159, 1256, 1257
1160, 1257, 1258
1161, 1258, 1259
1162, 1259, 1260
1163, 1260, 1261
1164, 1261,   43
1165,   45, 1262
1166, 1262, 1263
1167, 1263, 1264
1168, 1264, 1265
1169, 1265, 1266
1170, 1266, 1267
1171, 1267, 1268
1172, 1268, 1269
1173, 1269, 1270
1174, 1270, 1271
1175, 1271, 1272
1176, 1272, 1273
1177, 1273, 1274
1178, 1274, 1275
1179, 1275, 1276
1180, 1276, 1277
1181, 1277, 1278
1182, 1278, 1279
1183, 1279, 1280
1184, 1280, 1281
1185, 1281, 1282
1186, 1282, 1283
1187, 1283, 1284
1188, 1284, 1285
1189, 1285, 1286
1190, 1286, 1287
1191, 1287,   44
1192,   46, 1288
1193, 1288, 1289
1194, 1289, 1290
1195, 1290, 1291
1196, 1291, 1292
1197, 1292, 1293
1198, 1293, 1294
1199, 1294, 1295
1200, 1295, 1296
1201, 1296, 1297
1202, 1297, 1298
1203, 1298, 1299
1204, 1299,   45
1205,   47, 1300
1206, 1300, 1301
1207, 1301, 1302
1208, 1302, 1303
1209, 1303, 1304
1210, 1304, 1305
1211, 1305, 1306
1212, 1306, 1307
1213, 1307, 1308
1214, 1308, 1309
1215, 1309, 1310
1216, 1310, 1311
1217, 1311, 1312
1218, 1312, 1313
1219, 1313, 1314
1220, 1314, 1315
1221, 1315, 1316
1222, 1316, 1317
1223, 1317, 1318
1224, 1318,   46
1225,   21, 1319
1226, 1319, 1320
1227, 1320, 1321
1228, 1321, 1322
1229, 1322, 1323
1230, 1323, 1324
1231, 1324, 1325
1232, 1325, 1326
1233, 1326, 1327
1234, 1327, 1328
1235, 1328, 1329
1236, 1329, 1330
1237, 1330, 1331
1238, 1331, 1332
1239, 1332, 1333
1240, 1333, 1334
1241, 1334, 1335
1242, 1335, 1336
1243, 1336, 1337
1244, 1337,   48
1245,   49, 1338
1246, 1338, 1339
1247, 1339, 1340
1248, 1340, 1341
1249, 1341, 1342
1250, 1342, 1343
1251, 1343, 1344
1252, 1344, 1345
1253, 1345, 1346
1254, 1346, 1347
1255, 1347, 1348
1256, 1348, 1349
1257, 1349,   21
1258,   50, 1350
1259, 1350, 1351
1260, 1351, 1352
1261, 1352, 1353
1262, 1353, 1354
1263, 1354, 1355
1264, 1355, 1356
1265, 1356, 1357
1266, 1357, 1358
1267, 1358, 1359
1268, 1359, 1360
1269, 1360, 1361
1270, 1361, 1362
1271, 1362, 1363
1272, 1363, 1364
1273, 1364, 1365
1274, 1365, 1366
1275, 1366, 1367
1276, 1367, 1368
1277, 1368, 1369
1278, 1369, 1370
1279, 1370, 1371
1280, 1371, 1372
1281, 1372, 1373
1282, 1373, 1374
1283, 1374, 1375
1284, 1375,   49
1285,   51, 1376
1286, 1376, 1377
1287, 1377, 1378
1288, 1378, 1379
1289, 1379, 1380
1290, 1380, 1381
1291, 1381, 1382
1292, 1382, 1383
1293, 1383, 1384
1294, 1384, 1385
1295, 1385, 1386
1296, 1386, 1387
1297, 1387, 1388
1298, 1388, 1389
1299, 1389, 1390
1300, 1390, 1391
1301, 1391, 1392
1302, 1392, 1393
1303, 1393, 1394
1304, 1394, 1395
1305, 1395, 1396
1306, 1396, 1397
1307, 1397, 1398
1308, 1398, 1399
1309, 1399, 1400
1310, 1400, 1401
1311, 1401, 1402
1312, 1402, 1403
1313, 1403, 1404
1314, 1404, 1405
1315, 1405, 1406
1316, 1406, 1407
1317, 1407, 1408
1318, 1408, 1409
1319, 1409, 1410
1320, 1410, 1411
1321, 1411, 1412
1322, 1412, 1413
1323, 1413, 1414
1324, 1414,   50
1325,   52, 1415
1326, 1415, 1416
1327, 1416, 1417
1328, 1417, 1418
1329, 1418, 1419
1330, 1419, 1420
1331, 1420, 1421
1332, 1421, 1422
1333, 1422, 1423
1334, 1423, 1424
1335, 1424, 1425
1336, 1425, 1426
1337, 1426, 1427
1338, 1427, 1428
1339, 1428, 1429
1340, 1429, 1430
1341, 1430, 1431
1342, 1431, 1432
1343, 1432, 1433
1344, 1433, 1434
1345, 1434, 1435
1346, 1435, 1436
1347, 1436, 1437
1348, 1437, 1438
1349, 1438, 1439
1350, 1439, 1440
1351, 1440,   51
1352,   53, 1441
1353, 1441, 1442
1354, 1442, 1443
1355, 1443, 1444
1356, 1444, 1445
1357, 1445, 1446
1358, 1446, 1447
1359, 1447, 1448
1360, 1448, 1449
1361, 1449, 1450
1362, 1450, 1451
1363, 1451, 1452
1364, 1452,   52
1365,   54, 1453
1366, 1453, 1454
1367, 1454, 1455
1368, 1455, 1456
1369, 1456, 1457
1370, 1457, 1458
1371, 1458, 1459
1372, 1459, 1460
1373, 1460, 1461
1374, 1461, 1462
1375, 1462, 1463
1376, 1463, 1464
1377, 1464, 1465
1378, 1465, 1466
1379, 1466, 1467
1380, 1467, 1468
1381, 1468, 1469
1382, 1469, 1470
1383, 1470, 1471
1384, 1471,   53
1385,   55, 1472
1386, 1472, 1473
1387, 1473, 1474
1388, 1474, 1475
1389, 1475, 1476
1390, 1476, 1477
1391, 1477, 1478
1392, 1478, 1479
1393, 1479, 1480
1394, 1480, 1481
1395, 1481, 1482
1396, 1482, 1483
1397, 1483,   27
1398,   56, 1484
1399, 1484, 1485
1400, 1485, 1486
1401, 1486, 1487
1402, 1487, 1488
1403, 1488, 1489
1404, 1489, 1490
1405, 1490, 1491
1406, 1491, 1492
1407, 1492, 1493
1408, 1493, 1494
1409, 1494, 1495
1410, 1495, 1496
1411, 1496, 1497
1412, 1497, 1498
1413, 1498, 1499
1414, 1499, 1500
1415, 1500, 1501
1416, 1501, 1502
1417, 1502, 1503
1418, 1503, 1504
1419, 1504, 1505
1420, 1505, 1506
1421, 1506, 1507
1422, 1507, 1508
1423, 1508, 1509
1424, 1509,   55
1425,   57, 1510
1426, 1510, 1511
1427, 1511, 1512
1428, 1512, 1513
1429, 1513, 1514
1430, 1514, 1515
1431, 1515, 1516
1432, 1516, 1517
1433, 1517, 1518
1434, 1518, 1519
1435, 1519, 1520
1436, 1520, 1521
1437, 1521, 1522
1438, 1522, 1523
1439, 1523, 1524
1440, 1524, 1525
1441, 1525, 1526
1442, 1526, 1527
1443, 1527, 1528
1444, 1528, 1529
1445, 1529, 1530
1446, 1530, 1531
1447, 1531, 1532
1448, 1532, 1533
1449, 1533, 1534
1450, 1534, 1535
1451, 1535, 1536
1452, 1536, 1537
1453, 1537, 1538
1454, 1538, 1539
1455, 1539, 1540
1456, 1540, 1541
1457, 1541, 1542
1458, 1542, 1543
1459, 1543, 1544
1460, 1544, 1545
1461, 1545, 1546
1462, 1546, 1547
1463, 1547, 1548
1464, 1548,   56
1465,   58, 1549
1466, 1549, 1550
1467, 1550, 1551
1468, 1551, 1552
1469, 1552, 1553
1470, 1553, 1554
1471, 1554, 1555
1472, 1555, 1556
1473, 1556, 1557
1474, 1557, 1558
1475, 1558, 1559
1476, 1559, 1560
1477, 1560, 1561
1478, 1561, 1562
1479, 1562, 1563
1480, 1563, 1564
1481, 1564, 1565
1482, 1565, 1566
1483, 1566, 1567
1484, 1567, 1568
1485, 1568, 1569
1486, 1569, 1570
1487, 1570, 1571
1488, 1571, 1572
1489, 1572, 1573
1490, 1573, 1574
1491, 1574,   57
1492,   59, 1575
1493, 1575, 1576
1494, 1576, 1577
1495, 1577, 1578
1496, 1578, 1579
1497, 1579, 1580
1498, 1580, 1581
1499, 1581, 1582
1500, 1582, 1583
1501, 1583, 1584
1502, 1584, 1585
1503, 1585, 1586
1504, 1586,   58
1505,   60, 1587
1506, 1587, 1588
1507, 1588, 1589
1508, 1589, 1590
1509, 1590, 1591
1510, 1591, 1592
1511, 1592, 1593
1512, 1593, 1594
1513, 1594, 1595
1514, 1595, 1596
1515, 1596, 1597
1516, 1597, 1598
1517, 1598, 1599
1518, 1599, 1600
1519, 1600, 1601
1520, 1601, 1602
1521, 1602, 1603
1522, 1603, 1604
1523, 1604, 1605
1524, 1605,   59
1525,   61, 1606
1526, 1606, 1607
1527, 1607, 1608
1528, 1608, 1609
1529, 1609, 1610
1530, 1610, 1611
1531, 1611, 1612
1532, 1612, 1613
1533, 1613, 1614
1534, 1614, 1615
1535, 1615, 1616
1536, 1616, 1617
1537, 1617, 1618
1538, 1618, 1619
1539, 1619, 1620
1540, 1620, 1621
1541, 1621, 1622
1542, 1622, 1623
1543, 1623, 1624
1544, 1624, 1625
1545, 1625, 1626
1546, 1626, 1627
1547, 1627, 1628
1548, 1628, 1629
1549, 1629, 1630
1550, 1630, 1631
1551, 1631, 1632
1552, 1632, 1633
1553, 1633, 1634
1554, 1634, 1635
1555, 1635, 1636
1556, 1636, 1637
1557, 1637, 1638
1558, 1638, 1639
1559, 1639, 1640
1560, 1640, 1641
1561, 1641, 1642
1562, 1642, 1643
1563, 1643, 1644
1564, 1644, 1645
1565, 1645, 1646
1566, 1646, 1647
1567, 1647, 1648
1568, 1648, 1649
1569, 1649, 1650
1570, 1650, 1651
1571, 1651, 1652
1572, 1652, 1653
1573, 1653, 1654
1574, 1654, 1655
1575, 1655, 1656
1576, 1656, 1657
1577, 1657, 1658
1578, 1658, 1659
1579, 1659, 1660
1580, 1660, 1661
1581, 1661, 1662
1582, 1662, 1663
1583, 1663, 1664
1584, 1664, 1665
1585, 1665, 1666
1586, 1666, 1667
1587, 1667, 1668
1588, 1668, 1669
1589, 1669,    5
1590,   62, 1670
1591, 1670, 1671
1592, 1671, 1672
1593, 1672, 1673
1594, 1673, 1674
1595, 1674, 1675
1596, 1675, 1676
1597, 1676, 1677
1598, 1677, 1678
1599, 1678, 1679
1600, 1679, 1680
1601, 1680, 1681
1602, 1681, 1682
1603, 1682, 1683
1604, 1683, 1684
1605, 1684, 1685
1606, 1685,   61
1607,   63, 1686
1608, 1686, 1687
1609, 1687, 1688
1610, 1688, 1689
1611, 1689, 1690
1612, 1690, 1691
1613, 1691, 1692
1614, 1692, 1693
1615, 1693, 1694
1616, 1694, 1695
1617, 1695, 1696
1618, 1696, 1697
1619, 1697, 1698
1620, 1698, 1699
1621, 1699, 1700
1622, 1700,   29
1623,   64, 1701
1624, 1701, 1702
1625, 1702, 1703
1626, 1703, 1704
1627, 1704, 1705
1628, 1705, 1706
1629, 1706, 1707
1630, 1707, 1708
1631, 1708, 1709
1632, 1709, 1710
1633, 1710, 1711
1634, 1711, 1712
1635, 1712, 1713
1636, 1713, 1714
1637, 1714, 1715
1638, 1715, 1716
1639, 1716, 1717
1640, 1717, 1718
1641, 1718, 1719
1642, 1719, 1720
1643, 1720, 1721
1644, 1721, 1722
1645, 1722, 1723
1646, 1723, 1724
1647, 1724, 1725
1648, 1725, 1726
1649, 1726, 1727
1650, 1727, 1728
1651, 1728, 1729
1652, 1729, 1730
1653, 1730, 1731
1654, 1731, 1732
1655, 1732,   63
1656,   65, 1733
1657, 1733, 1734
1658, 1734, 1735
1659, 1735, 1736
1660, 1736, 1737
1661, 1737, 1738
1662, 1738, 1739
1663, 1739, 1740
1664, 1740, 1741
1665, 1741, 1742
1666, 1742, 1743
1667, 1743, 1744
1668, 1744, 1745
1669, 1745, 1746
1670, 1746, 1747
1671, 1747, 1748
1672, 1748, 1749
1673, 1749, 1750
1674, 1750, 1751
1675, 1751, 1752
1676, 1752, 1753
1677, 1753, 1754
1678, 1754, 1755
1679, 1755, 1756
1680, 1756, 1757
1681, 1757, 1758
1682, 1758, 1759
1683, 1759, 1760
1684, 1760, 1761
1685, 1761, 1762
1686, 1762, 1763
1687, 1763, 1764
1688, 1764,   64
1689,   66, 1765
1690, 1765, 1766
1691, 1766, 1767
1692, 1767, 1768
1693, 1768, 1769
1694, 1769, 1770
1695, 1770, 1771
1696, 1771, 1772
1697, 1772, 1773
1698, 1773, 1774
1699, 1774, 1775
1700, 1775, 1776
1701, 1776, 1777
1702, 1777, 1778
1703, 1778, 1779
1704, 1779, 1780
1705, 1780, 1781
1706, 1781, 1782
1707, 1782, 1783
1708, 1783, 1784
1709, 1784, 1785
1710, 1785, 1786
1711, 1786, 1787
1712, 1787, 1788
1713, 1788, 1789
1714, 1789, 1790
1715, 1790, 1791
1716, 1791, 1792
1717, 1792, 1793
1718, 1793, 1794
1719, 1794, 1795
1720, 1795, 1796
1721, 1796,   65
1722,   67, 1797
1723, 1797, 1798
1724, 1798, 1799
1725, 1799, 1800
1726, 1800, 1801
1727, 1801, 1802
1728, 1802, 1803
1729, 1803, 1804
1730, 1804, 1805
1731, 1805, 1806
1732, 1806, 1807
1733, 1807, 1808
1734, 1808, 1809
1735, 1809, 1810
1736, 1810, 1811
1737, 1811, 1812
1738, 1812, 1813
1739, 1813, 1814
1740, 1814, 1815
1741, 1815, 1816
1742, 1816, 1817
1743, 1817, 1818
1744, 1818, 1819
1745, 1819, 1820
1746, 1820, 1821
1747, 1821, 1822
1748, 1822, 1823
1749, 1823, 1824
1750, 1824, 1825
1751, 1825, 1826
1752, 1826, 1827
1753, 1827, 1828
1754, 1828,   66
1755,   36, 1829
1756, 1829, 1830
1757, 1830, 1831
1758, 1831, 1832
1759, 1832, 1833
1760, 1833, 1834
1761, 1834, 1835
1762, 1835, 1836
1763, 1836, 1837
1764, 1837, 1838
1765, 1838, 1839
1766, 1839, 1840
1767, 1840, 1841
1768, 1841, 1842
1769, 1842, 1843
1770, 1843, 1844
1771, 1844, 1845
1772, 1845, 1846
1773, 1846, 1847
1774, 1847, 1848
1775, 1848, 1849
1776, 1849, 1850
1777, 1850, 1851
1778, 1851, 1852
1779, 1852, 1853
1780, 1853, 1854
1781, 1854, 1855
1782, 1855, 1856
1783, 1856, 1857
1784, 1857, 1858
1785, 1858, 1859
1786, 1859, 1860
1787, 1860,   67
1788,   68, 1861
1789, 1861, 1862
1790, 1862, 1863
1791, 1863, 1864
1792, 1864, 1865
1793, 1865, 1866
1794, 1866, 1867
1795, 1867, 1868
1796, 1868, 1869
1797, 1869, 1870
1798, 1870, 1871
1799, 1871, 1872
1800, 1872, 1873
1801, 1873, 1874
1802, 1874, 1875
1803, 1875, 1876
1804, 1876, 1877
1805, 1877, 1878
1806, 1878, 1879
1807, 1879, 1880
1808, 1880, 1881
1809, 1881, 1882
1810, 1882, 1883
1811, 1883, 1884
1812, 1884, 1885
1813, 1885, 1886
1814, 1886, 1887
1815, 1887, 1888
1816, 1888, 1889
1817, 1889, 1890
1818, 1890, 1891
1819, 1891, 1892
1820, 1892,   36
1821,   69, 1893
1822, 1893, 1894
1823, 1894, 1895
1824, 1895, 1896
1825, 1896, 1897
1826, 1897, 1898
1827, 1898, 1899
1828, 1899, 1900
1829, 1900, 1901
1830, 1901, 1902
1831, 1902, 1903
1832, 1903, 1904
1833, 1904, 1905
1834, 1905, 1906
1835, 1906, 1907
1836, 1907, 1908
1837, 1908, 1909
1838, 1909, 1910
1839, 1910, 1911
1840, 1911, 1912
1841, 1912, 1913
1842, 1913, 1914
1843, 1914, 1915
1844, 1915, 1916
1845, 1916, 1917
1846, 1917, 1918
1847, 1918, 1919
1848, 1919, 1920
1849, 1920, 1921
1850, 1921, 1922
1851, 1922, 1923
1852, 1923, 1924
1853, 1924,   68
1854,   70, 1925
1855, 1925, 1926
1856, 1926, 1927
1857, 1927, 1928
1858, 1928, 1929
1859, 1929, 1930
1860, 1930, 1931
1861, 1931, 1932
1862, 1932, 1933
1863, 1933, 1934
1864, 1934, 1935
1865, 1935, 1936
1866, 1936, 1937
1867, 1937, 1938
1868, 1938, 1939
1869, 1939, 1940
1870, 1940, 1941
1871, 1941, 1942
1872, 1942, 1943
1873, 1943, 1944
1874, 1944, 1945
1875, 1945, 1946
1876, 1946, 1947
1877, 1947, 1948
1878, 1948, 1949
1879, 1949, 1950
1880, 1950, 1951
1881, 1951, 1952
1882, 1952, 1953
1883, 1953, 1954
1884, 1954, 1955
1885, 1955, 1956
1886, 1956,   69
1887,   71, 1957
1888, 1957, 1958
1889, 1958, 1959
1890, 1959, 1960
1891, 1960, 1961
1892, 1961, 1962
1893, 1962, 1963
1894, 1963, 1964
1895, 1964, 1965
1896, 1965, 1966
1897, 1966, 1967
1898, 1967, 1968
1899, 1968, 1969
1900, 1969, 1970
1901, 1970, 1971
1902, 1971, 1972
1903, 1972, 1973
1904, 1973, 1974
1905, 1974, 1975
1906, 1975, 1976
1907, 1976, 1977
1908, 1977, 1978
1909, 1978, 1979
1910, 1979, 1980
1911, 1980, 1981
1912, 1981, 1982
1913, 1982, 1983
1914, 1983, 1984
1915, 1984, 1985
1916, 1985, 1986
1917, 1986, 1987
1918, 1987, 1988
1919, 1988,   70
1920,   72, 1989
1921, 1989, 1990
1922, 1990, 1991
1923, 1991, 1992
1924, 1992, 1993
1925, 1993, 1994
1926, 1994, 1995
1927, 1995, 1996
1928, 1996, 1997
1929, 1997, 1998
1930, 1998, 1999
1931, 1999, 2000
1932, 2000, 2001
1933, 2001, 2002
1934, 2002, 2003
1935, 2003, 2004
1936, 2004, 2005
1937, 2005, 2006
1938, 2006, 2007
1939, 2007, 2008
1940, 2008, 2009
1941, 2009, 2010
1942, 2010, 2011
1943, 2011, 2012
1944, 2012, 2013
1945, 2013, 2014
1946, 2014, 2015
1947, 2015, 2016
1948, 2016, 2017
1949, 2017, 2018
1950, 2018, 2019
1951, 2019, 2020
1952, 2020,   71
1953,   43, 2021
1954, 2021, 2022
1955, 2022, 2023
1956, 2023, 2024
1957, 2024, 2025
1958, 2025, 2026
1959, 2026, 2027
1960, 2027, 2028
1961, 2028, 2029
1962, 2029, 2030
1963, 2030, 2031
1964, 2031, 2032
1965, 2032, 2033
1966, 2033, 2034
1967, 2034, 2035
1968, 2035,   72
1969,   73, 2036
1970, 2036, 2037
1971, 2037, 2038
1972, 2038, 2039
1973, 2039, 2040
1974, 2040, 2041
1975, 2041, 2042
1976, 2042, 2043
1977, 2043, 2044
1978, 2044, 2045
1979, 2045, 2046
1980, 2046, 2047
1981, 2047, 2048
1982, 2048, 2049
1983, 2049, 2050
1984, 2050,   43
1985,   74, 2051
1986, 2051, 2052
1987, 2052, 2053
1988, 2053, 2054
1989, 2054, 2055
1990, 2055, 2056
1991, 2056, 2057
1992, 2057, 2058
1993, 2058, 2059
1994, 2059, 2060
1995, 2060, 2061
1996, 2061, 2062
1997, 2062, 2063
1998, 2063, 2064
1999, 2064, 2065
2000, 2065, 2066
2001, 2066, 2067
2002, 2067, 2068
2003, 2068, 2069
2004, 2069, 2070
2005, 2070, 2071
2006, 2071, 2072
2007, 2072, 2073
2008, 2073, 2074
2009, 2074, 2075
2010, 2075, 2076
2011, 2076, 2077
2012, 2077, 2078
2013, 2078, 2079
2014, 2079, 2080
2015, 2080, 2081
2016, 2081, 2082
2017, 2082,   73
2018,   75, 2083
2019, 2083, 2084
2020, 2084, 2085
2021, 2085, 2086
2022, 2086, 2087
2023, 2087, 2088
2024, 2088, 2089
2025, 2089, 2090
2026, 2090, 2091
2027, 2091, 2092
2028, 2092, 2093
2029, 2093, 2094
2030, 2094, 2095
2031, 2095, 2096
2032, 2096, 2097
2033, 2097, 2098
2034, 2098, 2099
2035, 2099, 2100
2036, 2100, 2101
2037, 2101, 2102
2038, 2102, 2103
2039, 2103, 2104
2040, 2104, 2105
2041, 2105, 2106
2042, 2106, 2107
2043, 2107, 2108
2044, 2108, 2109
2045, 2109, 2110
2046, 2110, 2111
2047, 2111, 2112
2048, 2112, 2113
2049, 2113, 2114
2050, 2114,   74
2051,   76, 2115
2052, 2115, 2116
2053, 2116, 2117
2054, 2117, 2118
2055, 2118, 2119
2056, 2119, 2120
2057, 2120, 2121
2058, 2121, 2122
2059, 2122, 2123
2060, 2123, 2124
2061, 2124, 2125
2062, 2125, 2126
2063, 2126, 2127
2064, 2127, 2128
2065, 2128, 2129
2066, 2129, 2130
2067, 2130, 2131
2068, 2131, 2132
2069, 2132, 2133
2070, 2133, 2134
2071, 2134, 2135
2072, 2135, 2136
2073, 2136, 2137
2074, 2137, 2138
2075, 2138, 2139
2076, 2139, 2140
2077, 2140, 2141
2078, 2141, 2142
2079, 2142, 2143
2080, 2143, 2144
2081, 2144, 2145
2082, 2145, 2146
2083, 2146,   75
2084,   77, 2147
2085, 2147, 2148
2086, 2148, 2149
2087, 2149, 2150
2088, 2150, 2151
2089, 2151, 2152
2090, 2152, 2153
2091, 2153, 2154
2092, 2154, 2155
2093, 2155, 2156
2094, 2156, 2157
2095, 2157, 2158
2096, 2158, 2159
2097, 2159, 2160
2098, 2160, 2161
2099, 2161, 2162
2100, 2162, 2163
2101, 2163, 2164
2102, 2164, 2165
2103, 2165, 2166
2104, 2166, 2167
2105, 2167, 2168
2106, 2168, 2169
2107, 2169, 2170
2108, 2170, 2171
2109, 2171, 2172
2110, 2172, 2173
2111, 2173, 2174
2112, 2174, 2175
2113, 2175, 2176
2114, 2176, 2177
2115, 2177, 2178
2116, 2178,   76
2117,   50, 2179
2118, 2179, 2180
2119, 2180, 2181
2120, 2181, 2182
2121, 2182, 2183
2122, 2183, 2184
2123, 2184, 2185
2124, 2185, 2186
2125, 2186, 2187
2126, 2187, 2188
2127, 2188, 2189
2128, 2189, 2190
2129, 2190, 2191
2130, 2191, 2192
2131, 2192, 2193
2132, 2193, 2194
2133, 2194, 2195
2134, 2195, 2196
2135, 2196, 2197
2136, 2197, 2198
2137, 2198, 2199
2138, 2199, 2200
2139, 2200, 2201
2140, 2201, 2202
2141, 2202, 2203
2142, 2203, 2204
2143, 2204, 2205
2144, 2205, 2206
2145, 2206, 2207
2146, 2207, 2208
2147, 2208, 2209
2148, 2209, 2210
2149, 2210,   77
2150,   78, 2211
2151, 2211, 2212
2152, 2212, 2213
2153, 2213, 2214
2154, 2214, 2215
2155, 2215, 2216
2156, 2216, 2217
2157, 2217, 2218
2158, 2218, 2219
2159, 2219, 2220
2160, 2220, 2221
2161, 2221, 2222
2162, 2222, 2223
2163, 2223, 2224
2164, 2224, 2225
2165, 2225, 2226
2166, 2226, 2227
2167, 2227, 2228
2168, 2228, 2229
2169, 2229, 2230
2170, 2230, 2231
2171, 2231, 2232
2172, 2232, 2233
2173, 2233, 2234
2174, 2234, 2235
2175, 2235, 2236
2176, 2236, 2237
2177, 2237, 2238
2178, 2238, 2239
2179, 2239, 2240
2180, 2240, 2241
2181, 2241, 2242
2182, 2242,   50
2183,   79, 2243
2184, 2243, 2244
2185, 2244, 2245
2186, 2245, 2246
2187, 2246, 2247
2188, 2247, 2248
2189, 2248, 2249
2190, 2249, 2250
2191, 2250, 2251
2192, 2251, 2252
2193, 2252, 2253
2194, 2253, 2254
2195, 2254, 2255
2196, 2255, 2256
2197, 2256, 2257
2198, 2257, 2258
2199, 2258, 2259
2200, 2259, 2260
2201, 2260, 2261
2202, 2261, 2262
2203, 2262, 2263
2204, 2263, 2264
2205, 2264, 2265
2206, 2265, 2266
2207, 2266, 2267
2208, 2267, 2268
2209, 2268, 2269
2210, 2269, 2270
2211, 2270, 2271
2212, 2271, 2272
2213, 2272, 2273
2214, 2273, 2274
2215, 2274,   78
2216,   80, 2275
2217, 2275, 2276
2218, 2276, 2277
2219, 2277, 2278
2220, 2278, 2279
2221, 2279, 2280
2222, 2280, 2281
2223, 2281, 2282
2224, 2282, 2283
2225, 2283, 2284
2226, 2284, 2285
2227, 2285, 2286
2228, 2286, 2287
2229, 2287, 2288
2230, 2288, 2289
2231, 2289, 2290
2232, 2290, 2291
2233, 2291, 2292
2234, 2292, 2293
2235, 2293, 2294
2236, 2294, 2295
2237, 2295, 2296
2238, 2296, 2297
2239, 2297, 2298
2240, 2298, 2299
2241, 2299, 2300
2242, 2300, 2301
2243, 2301, 2302
2244, 2302, 2303
2245, 2303, 2304
2246, 2304, 2305
2247, 2305, 2306
2248, 2306,   79
2249,   81, 2307
2250, 2307, 2308
2251, 2308, 2309
2252, 2309, 2310
2253, 2310, 2311
2254, 2311, 2312
2255, 2312, 2313
2256, 2313, 2314
2257, 2314, 2315
2258, 2315, 2316
2259, 2316, 2317
2260, 2317, 2318
2261, 2318, 2319
2262, 2319, 2320
2263, 2320, 2321
2264, 2321, 2322
2265, 2322, 2323
2266, 2323, 2324
2267, 2324, 2325
2268, 2325, 2326
2269, 2326, 2327
2270, 2327, 2328
2271, 2328, 2329
2272, 2329, 2330
2273, 2330, 2331
2274, 2331, 2332
2275, 2332, 2333
2276, 2333, 2334
2277, 2334, 2335
2278, 2335, 2336
2279, 2336, 2337
2280, 2337, 2338
2281, 2338,   80
2282,   82, 2339
2283, 2339, 2340
2284, 2340, 2341
2285, 2341, 2342
2286, 2342, 2343
2287, 2343, 2344
2288, 2344, 2345
2289, 2345, 2346
2290, 2346, 2347
2291, 2347, 2348
2292, 2348, 2349
2293, 2349, 2350
2294, 2350, 2351
2295, 2351, 2352
2296, 2352, 2353
2297, 2353, 2354
2298, 2354, 2355
2299, 2355, 2356
2300, 2356, 2357
2301, 2357, 2358
2302, 2358, 2359
2303, 2359, 2360
2304, 2360, 2361
2305, 2361, 2362
2306, 2362, 2363
2307, 2363, 2364
2308, 2364, 2365
2309, 2365, 2366
2310, 2366, 2367
2311, 2367, 2368
2312, 2368, 2369
2313, 2369, 2370
2314, 2370,   81
2315,   56, 2371
2316, 2371, 2372
2317, 2372, 2373
2318, 2373, 2374
2319, 2374, 2375
2320, 2375, 2376
2321, 2376, 2377
2322, 2377, 2378
2323, 2378, 2379
2324, 2379, 2380
2325, 2380, 2381
2326, 2381, 2382
2327, 2382, 2383
2328, 2383, 2384
2329, 2384, 2385
2330, 2385,   82
2331,   83, 2386
2332, 2386, 2387
2333, 2387, 2388
2334, 2388, 2389
2335, 2389, 2390
2336, 2390, 2391
2337, 2391, 2392
2338, 2392, 2393
2339, 2393, 2394
2340, 2394, 2395
2341, 2395, 2396
2342, 2396, 2397
2343, 2397, 2398
2344, 2398, 2399
2345, 2399, 2400
2346, 2400,   30
2347,   84, 2401
2348, 2401, 2402
2349, 2402, 2403
2350, 2403, 2404
2351, 2404, 2405
2352, 2405, 2406
2353, 2406, 2407
2354, 2407, 2408
2355, 2408, 2409
2356, 2409, 2410
2357, 2410, 2411
2358, 2411, 2412
2359, 2412, 2413
2360, 2413, 2414
2361, 2414, 2415
2362, 2415, 2416
2363, 2416, 2417
2364, 2417, 2418
2365, 2418, 2419
2366, 2419, 2420
2367, 2420, 2421
2368, 2421, 2422
2369, 2422, 2423
2370, 2423, 2424
2371, 2424, 2425
2372, 2425, 2426
2373, 2426, 2427
2374, 2427, 2428
2375, 2428, 2429
2376, 2429, 2430
2377, 2430, 2431
2378, 2431, 2432
2379, 2432,   83
2380,   85, 2433
2381, 2433, 2434
2382, 2434, 2435
2383, 2435, 2436
2384, 2436, 2437
2385, 2437, 2438
2386, 2438, 2439
2387, 2439, 2440
2388, 2440, 2441
2389, 2441, 2442
2390, 2442, 2443
2391, 2443, 2444
2392, 2444, 2445
2393, 2445, 2446
2394, 2446, 2447
2395, 2447, 2448
2396, 2448, 2449
2397, 2449, 2450
2398, 2450, 2451
2399, 2451, 2452
2400, 2452, 2453
2401, 2453, 2454
2402, 2454, 2455
2403, 2455, 2456
2404, 2456, 2457
2405, 2457, 2458
2406, 2458, 2459
2407, 2459, 2460
2408, 2460, 2461
2409, 2461, 2462
2410, 2462, 2463
2411, 2463, 2464
2412, 2464,   84
2413,   86, 2465
2414, 2465, 2466
2415, 2466, 2467
2416, 2467, 2468
2417, 2468, 2469
2418, 2469, 2470
2419, 2470, 2471
2420, 2471, 2472
2421, 2472, 2473
2422, 2473, 2474
2423, 2474, 2475
2424, 2475, 2476
2425, 2476, 2477
2426, 2477, 2478
2427, 2478, 2479
2428, 2479, 2480
2429, 2480, 2481
2430, 2481, 2482
2431, 2482, 2483
2432, 2483, 2484
2433, 2484, 2485
2434, 2485, 2486
2435, 2486, 2487
2436, 2487, 2488
2437, 2488, 2489
2438, 2489, 2490
2439, 2490, 2491
2440, 2491, 2492
2441, 2492, 2493
2442, 2493, 2494
2443, 2494, 2495
2444, 2495, 2496
2445, 2496,   85
2446,   87, 2497
2447, 2497, 2498
2448, 2498, 2499
2449, 2499, 2500
2450, 2500, 2501
2451, 2501, 2502
2452, 2502, 2503
2453, 2503, 2504
2454, 2504, 2505
2455, 2505, 2506
2456, 2506, 2507
2457, 2507, 2508
2458, 2508, 2509
2459, 2509, 2510
2460, 2510, 2511
2461, 2511, 2512
2462, 2512, 2513
2463, 2513, 2514
2464, 2514, 2515
2465, 2515, 2516
2466, 2516, 2517
2467, 2517, 2518
2468, 2518, 2519
2469, 2519, 2520
2470, 2520, 2521
2471, 2521, 2522
2472, 2522, 2523
2473, 2523, 2524
2474, 2524, 2525
2475, 2525, 2526
2476, 2526, 2527
2477, 2527, 2528
2478, 2528,   86
2479,   37, 2529
2480, 2529, 2530
2481, 2530, 2531
2482, 2531, 2532
2483, 2532, 2533
2484, 2533, 2534
2485, 2534, 2535
2486, 2535, 2536
2487, 2536, 2537
2488, 2537, 2538
2489, 2538, 2539
2490, 2539, 2540
2491, 2540, 2541
2492, 2541, 2542
2493, 2542, 2543
2494, 2543, 2544
2495, 2544, 2545
2496, 2545, 2546
2497, 2546, 2547
2498, 2547, 2548
2499, 2548, 2549
2500, 2549, 2550
2501, 2550, 2551
2502, 2551, 2552
2503, 2552, 2553
2504, 2553, 2554
2505, 2554, 2555
2506, 2555, 2556
2507, 2556, 2557
2508, 2557, 2558
2509, 2558, 2559
2510, 2559, 2560
2511, 2560,   87
2512,   88, 2561
2513, 2561, 2562
2514, 2562, 2563
2515, 2563, 2564
2516, 2564, 2565
2517, 2565, 2566
2518, 2566, 2567
2519, 2567, 2568
2520, 2568, 2569
2521, 2569, 2570
2522, 2570, 2571
2523, 2571, 2572
2524, 2572, 2573
2525, 2573, 2574
2526, 2574, 2575
2527, 2575, 2576
2528, 2576, 2577
2529, 2577, 2578
2530, 2578, 2579
2531, 2579, 2580
2532, 2580, 2581
2533, 2581, 2582
2534, 2582, 2583
2535, 2583, 2584
2536, 2584, 2585
2537, 2585, 2586
2538, 2586, 2587
2539, 2587, 2588
2540, 2588, 2589
2541, 2589, 2590
2542, 2590, 2591
2543, 2591, 2592
2544, 2592,   37
2545,   89, 2593
2546, 2593, 2594
2547, 2594, 2595
2548, 2595, 2596
2549, 2596, 2597
2550, 2597, 2598
2551, 2598, 2599
2552, 2599, 2600
2553, 2600, 2601
2554, 2601, 2602
2555, 2602, 2603
2556, 2603, 2604
2557, 2604, 2605
2558, 2605, 2606
2559, 2606, 2607
2560, 2607, 2608
2561, 2608, 2609
2562, 2609, 2610
2563, 2610, 2611
2564, 2611, 2612
2565, 2612, 2613
2566, 2613, 2614
2567, 2614, 2615
2568, 2615, 2616
2569, 2616, 2617
2570, 2617, 2618
2571, 2618, 2619
2572, 2619, 2620
2573, 2620, 2621
2574, 2621, 2622
2575, 2622, 2623
2576, 2623, 2624
2577, 2624,   88
2578,   90, 2625
2579, 2625, 2626
2580, 2626, 2627
2581, 2627, 2628
2582, 2628, 2629
2583, 2629, 2630
2584, 2630, 2631
2585, 2631, 2632
2586, 2632, 2633
2587, 2633, 2634
2588, 2634, 2635
2589, 2635, 2636
2590, 2636, 2637
2591, 2637, 2638
2592, 2638, 2639
2593, 2639, 2640
2594, 2640, 2641
2595, 2641, 2642
2596, 2642, 2643
2597, 2643, 2644
2598, 2644, 2645
2599, 2645, 2646
2600, 2646, 2647
2601, 2647, 2648
2602, 2648, 2649
2603, 2649, 2650
2604, 2650, 2651
2605, 2651, 2652
2606, 2652, 2653
2607, 2653, 2654
2608, 2654, 2655
2609, 2655, 2656
2610, 2656,   89
2611,   91, 2657
2612, 2657, 2658
2613, 2658, 2659
2614, 2659, 2660
2615, 2660, 2661
2616, 2661, 2662
2617, 2662, 2663
2618, 2663, 2664
2619, 2664, 2665
2620, 2665, 2666
2621, 2666, 2667
2622, 2667, 2668
2623, 2668, 2669
2624, 2669, 2670
2625, 2670, 2671
2626, 2671, 2672
2627, 2672, 2673
2628, 2673, 2674
2629, 2674, 2675
2630, 2675, 2676
2631, 2676, 2677
2632, 2677, 2678
2633, 2678, 2679
2634, 2679, 2680
2635, 2680, 2681
2636, 2681, 2682
2637, 2682, 2683
2638, 2683, 2684
2639, 2684, 2685
2640, 2685, 2686
2641, 2686, 2687
2642, 2687, 2688
2643, 2688,   90
2644,   92, 2689
2645, 2689, 2690
2646, 2690, 2691
2647, 2691, 2692
2648, 2692, 2693
2649, 2693, 2694
2650, 2694, 2695
2651, 2695, 2696
2652, 2696, 2697
2653, 2697, 2698
2654, 2698, 2699
2655, 2699, 2700
2656, 2700, 2701
2657, 2701, 2702
2658, 2702, 2703
2659, 2703, 2704
2660, 2704, 2705
2661, 2705, 2706
2662, 2706, 2707
2663, 2707, 2708
2664, 2708, 2709
2665, 2709, 2710
2666, 2710, 2711
2667, 2711, 2712
2668, 2712, 2713
2669, 2713, 2714
2670, 2714, 2715
2671, 2715, 2716
2672, 2716, 2717
2673, 2717, 2718
2674, 2718, 2719
2675, 2719, 2720
2676, 2720,   91
2677,   44, 2721
2678, 2721, 2722
2679, 2722, 2723
2680, 2723, 2724
2681, 2724, 2725
2682, 2725, 2726
2683, 2726, 2727
2684, 2727, 2728
2685, 2728, 2729
2686, 2729, 2730
2687, 2730, 2731
2688, 2731, 2732
2689, 2732, 2733
2690, 2733, 2734
2691, 2734, 2735
2692, 2735,   92
2693,   93, 2736
2694, 2736, 2737
2695, 2737, 2738
2696, 2738, 2739
2697, 2739, 2740
2698, 2740, 2741
2699, 2741, 2742
2700, 2742, 2743
2701, 2743, 2744
2702, 2744, 2745
2703, 2745, 2746
2704, 2746, 2747
2705, 2747, 2748
2706, 2748, 2749
2707, 2749, 2750
2708, 2750,   44
2709,   94, 2751
2710, 2751, 2752
2711, 2752, 2753
2712, 2753, 2754
2713, 2754, 2755
2714, 2755, 2756
2715, 2756, 2757
2716, 2757, 2758
2717, 2758, 2759
2718, 2759, 2760
2719, 2760, 2761
2720, 2761, 2762
2721, 2762, 2763
2722, 2763, 2764
2723, 2764, 2765
2724, 2765, 2766
2725, 2766, 2767
2726, 2767, 2768
2727, 2768, 2769
2728, 2769, 2770
2729, 2770, 2771
2730, 2771, 2772
2731, 2772, 2773
2732, 2773, 2774
2733, 2774, 2775
2734, 2775, 2776
2735, 2776, 2777
2736, 2777, 2778
2737, 2778, 2779
2738, 2779, 2780
2739, 2780, 2781
2740, 2781, 2782
2741, 2782,   93
2742,   95, 2783
2743, 2783, 2784
2744, 2784, 2785
2745, 2785, 2786
2746, 2786, 2787
2747, 2787, 2788
2748, 2788, 2789
2749, 2789, 2790
2750, 2790, 2791
2751, 2791, 2792
2752, 2792, 2793
2753, 2793, 2794
2754, 2794, 2795
2755, 2795, 2796
2756, 2796, 2797
2757, 2797, 2798
2758, 2798, 2799
2759, 2799, 2800
2760, 2800, 2801
2761, 2801, 2802
2762, 2802, 2803
2763, 2803, 2804
2764, 2804, 2805
2765, 2805, 2806
2766, 2806, 2807
2767, 2807, 2808
2768, 2808, 2809
2769, 2809, 2810
2770, 2810, 2811
2771, 2811, 2812
2772, 2812, 2813
2773, 2813, 2814
2774, 2814,   94
2775,   96, 2815
2776, 2815, 2816
2777, 2816, 2817
2778, 2817, 2818
2779, 2818, 2819
2780, 2819, 2820
2781, 2820, 2821
2782, 2821, 2822
2783, 2822, 2823
2784, 2823, 2824
2785, 2824, 2825
2786, 2825, 2826
2787, 2826, 2827
2788, 2827, 2828
2789, 2828, 2829
2790, 2829, 2830
2791, 2830, 2831
2792, 2831, 2832
2793, 2832, 2833
2794, 2833, 2834
2795, 2834, 2835
2796, 2835, 2836
2797, 2836, 2837
2798, 2837, 2838
2799, 2838, 2839
2800, 2839, 2840
2801, 2840, 2841
2802, 2841, 2842
2803, 2842, 2843
2804, 2843, 2844
2805, 2844, 2845
2806, 2845, 2846
2807, 2846,   95
2808,   97, 2847
2809, 2847, 2848
2810, 2848, 2849
2811, 2849, 2850
2812, 2850, 2851
2813, 2851, 2852
2814, 2852, 2853
2815, 2853, 2854
2816, 2854, 2855
2817, 2855, 2856
2818, 2856, 2857
2819, 2857, 2858
2820, 2858, 2859
2821, 2859, 2860
2822, 2860, 2861
2823, 2861, 2862
2824, 2862, 2863
2825, 2863, 2864
2826, 2864, 2865
2827, 2865, 2866
2828, 2866, 2867
2829, 2867, 2868
2830, 2868, 2869
2831, 2869, 2870
2832, 2870, 2871
2833, 2871, 2872
2834, 2872, 2873
2835, 2873, 2874
2836, 2874, 2875
2837, 2875, 2876
2838, 2876, 2877
2839, 2877, 2878
2840, 2878,   96
2841,   51, 2879
2842, 2879, 2880
2843, 2880, 2881
2844, 2881, 2882
2845, 2882, 2883
2846, 2883, 2884
2847, 2884, 2885
2848, 2885, 2886
2849, 2886, 2887
2850, 2887, 2888
2851, 2888, 2889
2852, 2889, 2890
2853, 2890, 2891
2854, 2891, 2892
2855, 2892, 2893
2856, 2893, 2894
2857, 2894, 2895
2858, 2895, 2896
2859, 2896, 2897
2860, 2897, 2898
2861, 2898, 2899
2862, 2899, 2900
2863, 2900, 2901
2864, 2901, 2902
2865, 2902, 2903
2866, 2903, 2904
2867, 2904, 2905
2868, 2905, 2906
2869, 2906, 2907
2870, 2907, 2908
2871, 2908, 2909
2872, 2909, 2910
2873, 2910,   97
2874,   98, 2911
2875, 2911, 2912
2876, 2912, 2913
2877, 2913, 2914
2878, 2914, 2915
2879, 2915, 2916
2880, 2916, 2917
2881, 2917, 2918
2882, 2918, 2919
2883, 2919, 2920
2884, 2920, 2921
2885, 2921, 2922
2886, 2922, 2923
2887, 2923, 2924
2888, 2924, 2925
2889, 2925, 2926
2890, 2926, 2927
2891, 2927, 2928
2892, 2928, 2929
2893, 2929, 2930
2894, 2930, 2931
2895, 2931, 2932
2896, 2932, 2933
2897, 2933, 2934
2898, 2934, 2935
2899, 2935, 2936
2900, 2936, 2937
2901, 2937, 2938
2902, 2938, 2939
2903, 2939, 2940
2904, 2940, 2941
2905, 2941, 2942
2906, 2942,   51
2907,   99, 2943
2908, 2943, 2944
2909, 2944, 2945
2910, 2945, 2946
2911, 2946, 2947
2912, 2947, 2948
2913, 2948, 2949
2914, 2949, 2950
2915, 2950, 2951
2916, 2951, 2952
2917, 2952, 2953
2918, 2953, 2954
2919, 2954, 2955
2920, 2955, 2956
2921, 2956, 2957
2922, 2957, 2958
2923, 2958, 2959
2924, 2959, 2960
2925, 2960, 2961
2926, 2961, 2962
2927, 2962, 2963
2928, 2963, 2964
2929, 2964, 2965
2930, 2965, 2966
2931, 2966, 2967
2932, 2967, 2968
2933, 2968, 2969
2934, 2969, 2970
2935, 2970, 2971
2936, 2971, 2972
2937, 2972, 2973
2938, 2973, 2974
2939, 2974,   98
2940,  100, 2975
2941, 2975, 2976
2942, 2976, 2977
2943, 2977, 2978
2944, 2978, 2979
2945, 2979, 2980
2946, 2980, 2981
2947, 2981, 2982
2948, 2982, 2983
2949, 2983, 2984
2950, 2984, 2985
2951, 2985, 2986
2952, 2986, 2987
2953, 2987, 2988
2954, 2988, 2989
2955, 2989, 2990
2956, 2990, 2991
2957, 2991, 2992
2958, 2992, 2993
2959, 2993, 2994
2960, 2994, 2995
2961, 2995, 2996
2962, 2996, 2997
2963, 2997, 2998
2964, 2998, 2999
2965, 2999, 3000
2966, 3000, 3001
2967, 3001, 3002
2968, 3002, 3003
2969, 3003, 3004
2970, 3004, 3005
2971, 3005, 3006
2972, 3006,   99
2973,  101, 3007
2974, 3007, 3008
2975, 3008, 3009
2976, 3009, 3010
2977, 3010, 3011
2978, 3011, 3012
2979, 3012, 3013
2980, 3013, 3014
2981, 3014, 3015
2982, 3015, 3016
2983, 3016, 3017
2984, 3017, 3018
2985, 3018, 3019
2986, 3019, 3020
2987, 3020, 3021
2988, 3021, 3022
2989, 3022, 3023
2990, 3023, 3024
2991, 3024, 3025
2992, 3025, 3026
2993, 3026, 3027
2994, 3027, 3028
2995, 3028, 3029
2996, 3029, 3030
2997, 3030, 3031
2998, 3031, 3032
2999, 3032, 3033
3000, 3033, 3034
3001, 3034, 3035
3002, 3035, 3036
3003, 3036, 3037
3004, 3037, 3038
3005, 3038,  100
3006,  102, 3039
3007, 3039, 3040
3008, 3040, 3041
3009, 3041, 3042
3010, 3042, 3043
3011, 3043, 3044
3012, 3044, 3045
3013, 3045, 3046
3014, 3046, 3047
3015, 3047, 3048
3016, 3048, 3049
3017, 3049, 3050
3018, 3050, 3051
3019, 3051, 3052
3020, 3052, 3053
3021, 3053, 3054
3022, 3054, 3055
3023, 3055, 3056
3024, 3056, 3057
3025, 3057, 3058
3026, 3058, 3059
3027, 3059, 3060
3028, 3060, 3061
3029, 3061, 3062
3030, 3062, 3063
3031, 3063, 3064
3032, 3064, 3065
3033, 3065, 3066
3034, 3066, 3067
3035, 3067, 3068
3036, 3068, 3069
3037, 3069, 3070
3038, 3070,  101
3039,   57, 3071
3040, 3071, 3072
3041, 3072, 3073
3042, 3073, 3074
3043, 3074, 3075
3044, 3075, 3076
3045, 3076, 3077
3046, 3077, 3078
3047, 3078, 3079
3048, 3079, 3080
3049, 3080, 3081
3050, 3081, 3082
3051, 3082, 3083
3052, 3083, 3084
3053, 3084, 3085
3054, 3085,  102
3055,  103, 3086
3056, 3086, 3087
3057, 3087, 3088
3058, 3088, 3089
3059, 3089,   31
3060,  104, 3090
3061, 3090, 3091
3062, 3091, 3092
3063, 3092, 3093
3064, 3093, 3094
3065, 3094, 3095
3066, 3095, 3096
3067, 3096, 3097
3068, 3097, 3098
3069, 3098, 3099
3070, 3099, 3100
3071, 3100, 3101
3072, 3101, 3102
3073, 3102, 3103
3074, 3103, 3104
3075, 3104, 3105
3076, 3105, 3106
3077, 3106, 3107
3078, 3107, 3108
3079, 3108, 3109
3080, 3109, 3110
3081, 3110, 3111
3082, 3111, 3112
3083, 3112, 3113
3084, 3113, 3114
3085, 3114, 3115
3086, 3115, 3116
3087, 3116, 3117
3088, 3117, 3118
3089, 3118, 3119
3090, 3119, 3120
3091, 3120, 3121
3092, 3121, 3122
3093, 3122, 3123
3094, 3123, 3124
3095, 3124, 3125
3096, 3125,  103
3097,  105, 3126
3098, 3126, 3127
3099, 3127, 3128
3100, 3128, 3129
3101, 3129, 3130
3102, 3130, 3131
3103, 3131, 3132
3104, 3132, 3133
3105, 3133, 3134
3106, 3134, 3135
3107, 3135, 3136
3108, 3136, 3137
3109, 3137, 3138
3110, 3138, 3139
3111, 3139, 3140
3112, 3140,   32
3113,  106, 3141
3114, 3141, 3142
3115, 3142, 3143
3116, 3143, 3144
3117, 3144, 3145
3118, 3145, 3146
3119, 3146, 3147
3120, 3147, 3148
3121, 3148, 3149
3122, 3149, 3150
3123, 3150, 3151
3124, 3151, 3152
3125, 3152, 3153
3126, 3153, 3154
3127, 3154, 3155
3128, 3155, 3156
3129, 3156, 3157
3130, 3157, 3158
3131, 3158, 3159
3132, 3159, 3160
3133, 3160, 3161
3134, 3161, 3162
3135, 3162, 3163
3136, 3163, 3164
3137, 3164, 3165
3138, 3165, 3166
3139, 3166, 3167
3140, 3167, 3168
3141, 3168, 3169
3142, 3169, 3170
3143, 3170, 3171
3144, 3171, 3172
3145, 3172,  105
3146,  107, 3173
3147, 3173, 3174
3148, 3174, 3175
3149, 3175, 3176
3150, 3176, 3177
3151, 3177, 3178
3152, 3178, 3179
3153, 3179, 3180
3154, 3180, 3181
3155, 3181, 3182
3156, 3182, 3183
3157, 3183, 3184
3158, 3184, 3185
3159, 3185, 3186
3160, 3186, 3187
3161, 3187, 3188
3162, 3188, 3189
3163, 3189, 3190
3164, 3190, 3191
3165, 3191, 3192
3166, 3192, 3193
3167, 3193, 3194
3168, 3194, 3195
3169, 3195, 3196
3170, 3196, 3197
3171, 3197, 3198
3172, 3198, 3199
3173, 3199, 3200
3174, 3200, 3201
3175, 3201, 3202
3176, 3202, 3203
3177, 3203, 3204
3178, 3204,  106
3179,  108, 3205
3180, 3205, 3206
3181, 3206, 3207
3182, 3207, 3208
3183, 3208, 3209
3184, 3209, 3210
3185, 3210, 3211
3186, 3211, 3212
3187, 3212, 3213
3188, 3213, 3214
3189, 3214, 3215
3190, 3215, 3216
3191, 3216, 3217
3192, 3217, 3218
3193, 3218, 3219
3194, 3219, 3220
3195, 3220, 3221
3196, 3221, 3222
3197, 3222, 3223
3198, 3223, 3224
3199, 3224, 3225
3200, 3225, 3226
3201, 3226, 3227
3202, 3227, 3228
3203, 3228, 3229
3204, 3229, 3230
3205, 3230, 3231
3206, 3231, 3232
3207, 3232, 3233
3208, 3233, 3234
3209, 3234, 3235
3210, 3235, 3236
3211, 3236,  107
3212,  109, 3237
3213, 3237, 3238
3214, 3238, 3239
3215, 3239, 3240
3216, 3240, 3241
3217, 3241, 3242
3218, 3242, 3243
3219, 3243, 3244
3220, 3244, 3245
3221, 3245, 3246
3222, 3246, 3247
3223, 3247, 3248
3224, 3248, 3249
3225, 3249, 3250
3226, 3250, 3251
3227, 3251, 3252
3228, 3252, 3253
3229, 3253, 3254
3230, 3254, 3255
3231, 3255, 3256
3232, 3256, 3257
3233, 3257, 3258
3234, 3258, 3259
3235, 3259, 3260
3236, 3260, 3261
3237, 3261, 3262
3238, 3262, 3263
3239, 3263, 3264
3240, 3264, 3265
3241, 3265, 3266
3242, 3266, 3267
3243, 3267, 3268
3244, 3268,  108
3245,   39, 3269
3246, 3269, 3270
3247, 3270, 3271
3248, 3271, 3272
3249, 3272, 3273
3250, 3273, 3274
3251, 3274, 3275
3252, 3275, 3276
3253, 3276, 3277
3254, 3277, 3278
3255, 3278, 3279
3256, 3279, 3280
3257, 3280, 3281
3258, 3281, 3282
3259, 3282, 3283
3260, 3283, 3284
3261, 3284, 3285
3262, 3285, 3286
3263, 3286, 3287
3264, 3287, 3288
3265, 3288, 3289
3266, 3289, 3290
3267, 3290, 3291
3268, 3291, 3292
3269, 3292, 3293
3270, 3293, 3294
3271, 3294, 3295
3272, 3295, 3296
3273, 3296, 3297
3274, 3297, 3298
3275, 3298, 3299
3276, 3299, 3300
3277, 3300,  109
3278,  110, 3301
3279, 3301, 3302
3280, 3302, 3303
3281, 3303, 3304
3282, 3304, 3305
3283, 3305, 3306
3284, 3306, 3307
3285, 3307, 3308
3286, 3308, 3309
3287, 3309, 3310
3288, 3310, 3311
3289, 3311, 3312
3290, 3312, 3313
3291, 3313, 3314
3292, 3314, 3315
3293, 3315, 3316
3294, 3316, 3317
3295, 3317, 3318
3296, 3318, 3319
3297, 3319, 3320
3298, 3320, 3321
3299, 3321, 3322
3300, 3322, 3323
3301, 3323, 3324
3302, 3324, 3325
3303, 3325, 3326
3304, 3326, 3327
3305, 3327, 3328
3306, 3328, 3329
3307, 3329, 3330
3308, 3330, 3331
3309, 3331, 3332
3310, 3332,   39
3311,  111, 3333
3312, 3333, 3334
3313, 3334, 3335
3314, 3335, 3336
3315, 3336, 3337
3316, 3337, 3338
3317, 3338, 3339
3318, 3339, 3340
3319, 3340, 3341
3320, 3341, 3342
3321, 3342, 3343
3322, 3343, 3344
3323, 3344, 3345
3324, 3345, 3346
3325, 3346, 3347
3326, 3347, 3348
3327, 3348, 3349
3328, 3349, 3350
3329, 3350, 3351
3330, 3351, 3352
3331, 3352, 3353
3332, 3353, 3354
3333, 3354, 3355
3334, 3355, 3356
3335, 3356, 3357
3336, 3357, 3358
3337, 3358, 3359
3338, 3359, 3360
3339, 3360, 3361
3340, 3361, 3362
3341, 3362, 3363
3342, 3363, 3364
3343, 3364,  110
3344,  112, 3365
3345, 3365, 3366
3346, 3366, 3367
3347, 3367, 3368
3348, 3368, 3369
3349, 3369, 3370
3350, 3370, 3371
3351, 3371, 3372
3352, 3372, 3373
3353, 3373, 3374
3354, 3374, 3375
3355, 3375, 3376
3356, 3376, 3377
3357, 3377, 3378
3358, 3378, 3379
3359, 3379, 3380
3360, 3380, 3381
3361, 3381, 3382
3362, 3382, 3383
3363, 3383, 3384
3364, 3384, 3385
3365, 3385, 3386
3366, 3386, 3387
3367, 3387, 3388
3368, 3388, 3389
3369, 3389, 3390
3370, 3390, 3391
3371, 3391, 3392
3372, 3392, 3393
3373, 3393, 3394
3374, 3394, 3395
3375, 3395, 3396
3376, 3396,  111
3377,  113, 3397
3378, 3397, 3398
3379, 3398, 3399
3380, 3399, 3400
3381, 3400, 3401
3382, 3401, 3402
3383, 3402, 3403
3384, 3403, 3404
3385, 3404, 3405
3386, 3405, 3406
3387, 3406, 3407
3388, 3407, 3408
3389, 3408, 3409
3390, 3409, 3410
3391, 3410, 3411
3392, 3411, 3412
3393, 3412, 3413
3394, 3413, 3414
3395, 3414, 3415
3396, 3415, 3416
3397, 3416, 3417
3398, 3417, 3418
3399, 3418, 3419
3400, 3419, 3420
3401, 3420, 3421
3402, 3421, 3422
3403, 3422, 3423
3404, 3423, 3424
3405, 3424, 3425
3406, 3425, 3426
3407, 3426, 3427
3408, 3427, 3428
3409, 3428,  112
3410,  114, 3429
3411, 3429, 3430
3412, 3430, 3431
3413, 3431, 3432
3414, 3432, 3433
3415, 3433, 3434
3416, 3434, 3435
3417, 3435, 3436
3418, 3436, 3437
3419, 3437, 3438
3420, 3438, 3439
3421, 3439, 3440
3422, 3440, 3441
3423, 3441, 3442
3424, 3442, 3443
3425, 3443, 3444
3426, 3444, 3445
3427, 3445, 3446
3428, 3446, 3447
3429, 3447, 3448
3430, 3448, 3449
3431, 3449, 3450
3432, 3450, 3451
3433, 3451, 3452
3434, 3452, 3453
3435, 3453, 3454
3436, 3454, 3455
3437, 3455, 3456
3438, 3456, 3457
3439, 3457, 3458
3440, 3458, 3459
3441, 3459, 3460
3442, 3460,  113
3443,   46, 3461
3444, 3461, 3462
3445, 3462, 3463
3446, 3463, 3464
3447, 3464, 3465
3448, 3465, 3466
3449, 3466, 3467
3450, 3467, 3468
3451, 3468, 3469
3452, 3469, 3470
3453, 3470, 3471
3454, 3471, 3472
3455, 3472, 3473
3456, 3473, 3474
3457, 3474, 3475
3458, 3475,  114
3459,  115, 3476
3460, 3476, 3477
3461, 3477, 3478
3462, 3478, 3479
3463, 3479, 3480
3464, 3480, 3481
3465, 3481, 3482
3466, 3482, 3483
3467, 3483, 3484
3468, 3484, 3485
3469, 3485, 3486
3470, 3486, 3487
3471, 3487, 3488
3472, 3488, 3489
3473, 3489, 3490
3474, 3490,   46
3475,  116, 3491
3476, 3491, 3492
3477, 3492, 3493
3478, 3493, 3494
3479, 3494, 3495
3480, 3495, 3496
3481, 3496, 3497
3482, 3497, 3498
3483, 3498, 3499
3484, 3499, 3500
3485, 3500, 3501
3486, 3501, 3502
3487, 3502, 3503
3488, 3503, 3504
3489, 3504, 3505
3490, 3505, 3506
3491, 3506, 3507
3492, 3507, 3508
3493, 3508, 3509
3494, 3509, 3510
3495, 3510, 3511
3496, 3511, 3512
3497, 3512, 3513
3498, 3513, 3514
3499, 3514, 3515
3500, 3515, 3516
3501, 3516, 3517
3502, 3517, 3518
3503, 3518, 3519
3504, 3519, 3520
3505, 3520, 3521
3506, 3521, 3522
3507, 3522,  115
3508,  117, 3523
3509, 3523, 3524
3510, 3524, 3525
3511, 3525, 3526
3512, 3526, 3527
3513, 3527, 3528
3514, 3528, 3529
3515, 3529, 3530
3516, 3530, 3531
3517, 3531, 3532
3518, 3532, 3533
3519, 3533, 3534
3520, 3534, 3535
3521, 3535, 3536
3522, 3536, 3537
3523, 3537, 3538
3524, 3538, 3539
3525, 3539, 3540
3526, 3540, 3541
3527, 3541, 3542
3528, 3542, 3543
3529, 3543, 3544
3530, 3544, 3545
3531, 3545, 3546
3532, 3546, 3547
3533, 3547, 3548
3534, 3548, 3549
3535, 3549, 3550
3536, 3550, 3551
3537, 3551, 3552
3538, 3552, 3553
3539, 3553, 3554
3540, 3554,  116
3541,  118, 3555
3542, 3555, 3556
3543, 3556, 3557
3544, 3557, 3558
3545, 3558, 3559
3546, 3559, 3560
3547, 3560, 3561
3548, 3561, 3562
3549, 3562, 3563
3550, 3563, 3564
3551, 3564, 3565
3552, 3565, 3566
3553, 3566, 3567
3554, 3567, 3568
3555, 3568, 3569
3556, 3569, 3570
3557, 3570, 3571
3558, 3571, 3572
3559, 3572, 3573
3560, 3573, 3574
3561, 3574, 3575
3562, 3575, 3576
3563, 3576, 3577
3564, 3577, 3578
3565, 3578, 3579
3566, 3579, 3580
3567, 3580, 3581
3568, 3581, 3582
3569, 3582, 3583
3570, 3583, 3584
3571, 3584, 3585
3572, 3585, 3586
3573, 3586,  117
3574,  119, 3587
3575, 3587, 3588
3576, 3588, 3589
3577, 3589, 3590
3578, 3590, 3591
3579, 3591, 3592
3580, 3592, 3593
3581, 3593, 3594
3582, 3594, 3595
3583, 3595, 3596
3584, 3596, 3597
3585, 3597, 3598
3586, 3598, 3599
3587, 3599, 3600
3588, 3600, 3601
3589, 3601, 3602
3590, 3602, 3603
3591, 3603, 3604
3592, 3604, 3605
3593, 3605, 3606
3594, 3606, 3607
3595, 3607, 3608
3596, 3608, 3609
3597, 3609, 3610
3598, 3610, 3611
3599, 3611, 3612
3600, 3612, 3613
3601, 3613, 3614
3602, 3614, 3615
3603, 3615, 3616
3604, 3616, 3617
3605, 3617, 3618
3606, 3618,  118
3607,   53, 3619
3608, 3619, 3620
3609, 3620, 3621
3610, 3621, 3622
3611, 3622, 3623
3612, 3623, 3624
3613, 3624, 3625
3614, 3625, 3626
3615, 3626, 3627
3616, 3627, 3628
3617, 3628, 3629
3618, 3629, 3630
3619, 3630, 3631
3620, 3631, 3632
3621, 3632, 3633
3622, 3633, 3634
3623, 3634, 3635
3624, 3635, 3636
3625, 3636, 3637
3626, 3637, 3638
3627, 3638, 3639
3628, 3639, 3640
3629, 3640, 3641
3630, 3641, 3642
3631, 3642, 3643
3632, 3643, 3644
3633, 3644, 3645
3634, 3645, 3646
3635, 3646, 3647
3636, 3647, 3648
3637, 3648, 3649
3638, 3649, 3650
3639, 3650,  119
3640,  120, 3651
3641, 3651, 3652
3642, 3652, 3653
3643, 3653, 3654
3644, 3654, 3655
3645, 3655, 3656
3646, 3656, 3657
3647, 3657, 3658
3648, 3658, 3659
3649, 3659, 3660
3650, 3660, 3661
3651, 3661, 3662
3652, 3662, 3663
3653, 3663, 3664
3654, 3664, 3665
3655, 3665, 3666
3656, 3666, 3667
3657, 3667, 3668
3658, 3668, 3669
3659, 3669, 3670
3660, 3670, 3671
3661, 3671, 3672
3662, 3672, 3673
3663, 3673, 3674
3664, 3674, 3675
3665, 3675, 3676
3666, 3676, 3677
3667, 3677, 3678
3668, 3678, 3679
3669, 3679, 3680
3670, 3680, 3681
3671, 3681, 3682
3672, 3682,   53
3673,  121, 3683
3674, 3683, 3684
3675, 3684, 3685
3676, 3685, 3686
3677, 3686, 3687
3678, 3687, 3688
3679, 3688, 3689
3680, 3689, 3690
3681, 3690, 3691
3682, 3691, 3692
3683, 3692, 3693
3684, 3693, 3694
3685, 3694, 3695
3686, 3695, 3696
3687, 3696, 3697
3688, 3697, 3698
3689, 3698, 3699
3690, 3699, 3700
3691, 3700, 3701
3692, 3701, 3702
3693, 3702, 3703
3694, 3703, 3704
3695, 3704, 3705
3696, 3705, 3706
3697, 3706, 3707
3698, 3707, 3708
3699, 3708, 3709
3700, 3709, 3710
3701, 3710, 3711
3702, 3711, 3712
3703, 3712, 3713
3704, 3713, 3714
3705, 3714,  120
3706,  122, 3715
3707, 3715, 3716
3708, 3716, 3717
3709, 3717, 3718
3710, 3718, 3719
3711, 3719, 3720
3712, 3720, 3721
3713, 3721, 3722
3714, 3722, 3723
3715, 3723, 3724
3716, 3724, 3725
3717, 3725, 3726
3718, 3726, 3727
3719, 3727, 3728
3720, 3728, 3729
3721, 3729, 3730
3722, 3730, 3731
3723, 3731, 3732
3724, 3732, 3733
3725, 3733, 3734
3726, 3734, 3735
3727, 3735, 3736
3728, 3736, 3737
3729, 3737, 3738
3730, 3738, 3739
3731, 3739, 3740
3732, 3740, 3741
3733, 3741, 3742
3734, 3742, 3743
3735, 3743, 3744
3736, 3744, 3745
3737, 3745, 3746
3738, 3746,  121
3739,  123, 3747
3740, 3747, 3748
3741, 3748, 3749
3742, 3749, 3750
3743, 3750, 3751
3744, 3751, 3752
3745, 3752, 3753
3746, 3753, 3754
3747, 3754, 3755
3748, 3755, 3756
3749, 3756, 3757
3750, 3757, 3758
3751, 3758, 3759
3752, 3759, 3760
3753, 3760, 3761
3754, 3761, 3762
3755, 3762, 3763
3756, 3763, 3764
3757, 3764, 3765
3758, 3765, 3766
3759, 3766, 3767
3760, 3767, 3768
3761, 3768, 3769
3762, 3769, 3770
3763, 3770, 3771
3764, 3771, 3772
3765, 3772, 3773
3766, 3773, 3774
3767, 3774, 3775
3768, 3775, 3776
3769, 3776, 3777
3770, 3777, 3778
3771, 3778,  122
3772,  124, 3779
3773, 3779, 3780
3774, 3780, 3781
3775, 3781, 3782
3776, 3782, 3783
3777, 3783, 3784
3778, 3784, 3785
3779, 3785, 3786
3780, 3786, 3787
3781, 3787, 3788
3782, 3788, 3789
3783, 3789, 3790
3784, 3790, 3791
3785, 3791, 3792
3786, 3792, 3793
3787, 3793, 3794
3788, 3794, 3795
3789, 3795, 3796
3790, 3796, 3797
3791, 3797, 3798
3792, 3798, 3799
3793, 3799, 3800
3794, 3800, 3801
3795, 3801, 3802
3796, 3802, 3803
3797, 3803, 3804
3798, 3804, 3805
3799, 3805, 3806
3800, 3806, 3807
3801, 3807, 3808
3802, 3808, 3809
3803, 3809, 3810
3804, 3810,  123
3805,   59, 3811
3806, 3811, 3812
3807, 3812, 3813
3808, 3813, 3814
3809, 3814, 3815
3810, 3815, 3816
3811, 3816, 3817
3812, 3817, 3818
3813, 3818, 3819
3814, 3819, 3820
3815, 3820, 3821
3816, 3821, 3822
3817, 3822, 3823
3818, 3823, 3824
3819, 3824, 3825
3820, 3825,  124
3821,  125, 3826
3822, 3826, 3827
3823, 3827, 3828
3824, 3828, 3829
3825, 3829, 3830
3826, 3830, 3831
3827, 3831, 3832
3828, 3832, 3833
3829, 3833, 3834
3830, 3834, 3835
3831, 3835, 3836
3832, 3836, 3837
3833, 3837, 3838
3834, 3838, 3839
3835, 3839, 3840
3836, 3840, 3841
3837, 3841, 3842
3838, 3842, 3843
3839, 3843, 3844
3840, 3844, 3845
3841, 3845, 3846
3842, 3846, 3847
3843, 3847, 3848
3844, 3848, 3849
3845, 3849, 3850
3846, 3850, 3851
3847, 3851, 3852
3848, 3852, 3853
3849, 3853, 3854
3850, 3854, 3855
3851, 3855, 3856
3852, 3856, 3857
3853, 3857, 3858
3854, 3858, 3859
3855, 3859, 3860
3856, 3860, 3861
3857, 3861, 3862
3858, 3862, 3863
3859, 3863, 3864
3860, 3864, 3865
3861, 3865, 3866
3862, 3866, 3867
3863, 3867, 3868
3864, 3868, 3869
3865, 3869, 3870
3866, 3870, 3871
3867, 3871, 3872
3868, 3872, 3873
3869, 3873, 3874
3870, 3874, 3875
3871, 3875, 3876
3872, 3876, 3877
3873, 3877, 3878
3874, 3878, 3879
3875, 3879, 3880
3876, 3880, 3881
3877, 3881, 3882
3878, 3882, 3883
3879, 3883, 3884
3880, 3884, 3885
3881, 3885, 3886
3882, 3886, 3887
3883, 3887, 3888
3884, 3888, 3889
3885, 3889,   35
3886,  126, 3890
3887, 3890, 3891
3888, 3891, 3892
3889, 3892, 3893
3890, 3893, 3894
3891, 3894, 3895
3892, 3895, 3896
3893, 3896, 3897
3894, 3897, 3898
3895, 3898, 3899
3896, 3899, 3900
3897, 3900, 3901
3898, 3901, 3902
3899, 3902, 3903
3900, 3903, 3904
3901, 3904, 3905
3902, 3905,  125
3903,  127, 3906
3904, 3906, 3907
3905, 3907, 3908
3906, 3908, 3909
3907, 3909,   38
3908,  128, 3910
3909, 3910, 3911
3910, 3911, 3912
3911, 3912, 3913
3912, 3913, 3914
3913, 3914, 3915
3914, 3915, 3916
3915, 3916, 3917
3916, 3917, 3918
3917, 3918, 3919
3918, 3919, 3920
3919, 3920, 3921
3920, 3921, 3922
3921, 3922, 3923
3922, 3923, 3924
3923, 3924, 3925
3924, 3925, 3926
3925, 3926, 3927
3926, 3927, 3928
3927, 3928, 3929
3928, 3929, 3930
3929, 3930, 3931
3930, 3931, 3932
3931, 3932, 3933
3932, 3933, 3934
3933, 3934, 3935
3934, 3935, 3936
3935, 3936, 3937
3936, 3937, 3938
3937, 3938, 3939
3938, 3939, 3940
3939, 3940, 3941
3940, 3941, 3942
3941, 3942, 3943
3942, 3943, 3944
3943, 3944, 3945
3944, 3945,  127
3945,  129, 3946
3946, 3946, 3947
3947, 3947, 3948
3948, 3948, 3949
3949, 3949, 3950
3950, 3950, 3951
3951, 3951, 3952
3952, 3952, 3953
3953, 3953, 3954
3954, 3954, 3955
3955, 3955, 3956
3956, 3956, 3957
3957, 3957, 3958
3958, 3958, 3959
3959, 3959, 3960
3960, 3960, 3961
3961, 3961, 3962
3962, 3962, 3963
3963, 3963, 3964
3964, 3964, 3965
3965, 3965, 3966
3966, 3966, 3967
3967, 3967, 3968
3968, 3968, 3969
3969, 3969, 3970
3970, 3970, 3971
3971, 3971, 3972
3972, 3972, 3973
3973, 3973, 3974
3974, 3974, 3975
3975, 3975, 3976
3976, 3976, 3977
3977, 3977, 3978
3978, 3978, 3979
3979, 3979, 3980
3980, 3980, 3981
3981, 3981, 3982
3982, 3982, 3983
3983, 3983, 3984
3984, 3984, 3985
3985, 3985, 3986
3986, 3986, 3987
3987, 3987, 3988
3988, 3988, 3989
3989, 3989, 3990
3990, 3990, 3991
3991, 3991, 3992
3992, 3992, 3993
3993, 3993, 3994
3994, 3994, 3995
3995, 3995, 3996
3996, 3996, 3997
3997, 3997, 3998
3998, 3998, 3999
3999, 3999, 4000
4000, 4000, 4001
4001, 4001, 4002
4002, 4002, 4003
4003, 4003, 4004
4004, 4004, 4005
4005, 4005, 4006
4006, 4006, 4007
4007, 4007, 4008
4008, 4008, 4009
4009, 4009,   42
4010,  130, 4010
4011, 4010, 4011
4012, 4011, 4012
4013, 4012, 4013
4014, 4013, 4014
4015, 4014, 4015
4016, 4015, 4016
4017, 4016, 4017
4018, 4017, 4018
4019, 4018, 4019
4020, 4019, 4020
4021, 4020, 4021
4022, 4021, 4022
4023, 4022, 4023
4024, 4023, 4024
4025, 4024, 4025
4026, 4025,  129
4027,  131, 4026
4028, 4026, 4027
4029, 4027, 4028
4030, 4028, 4029
4031, 4029,   45
4032,  132, 4030
4033, 4030, 4031
4034, 4031, 4032
4035, 4032, 4033
4036, 4033, 4034
4037, 4034, 4035
4038, 4035, 4036
4039, 4036, 4037
4040, 4037, 4038
4041, 4038, 4039
4042, 4039, 4040
4043, 4040, 4041
4044, 4041, 4042
4045, 4042, 4043
4046, 4043, 4044
4047, 4044, 4045
4048, 4045, 4046
4049, 4046, 4047
4050, 4047, 4048
4051, 4048, 4049
4052, 4049, 4050
4053, 4050, 4051
4054, 4051, 4052
4055, 4052, 4053
4056, 4053, 4054
4057, 4054, 4055
4058, 4055, 4056
4059, 4056, 4057
4060, 4057, 4058
4061, 4058, 4059
4062, 4059, 4060
4063, 4060, 4061
4064, 4061, 4062
4065, 4062, 4063
4066, 4063, 4064
4067, 4064, 4065
4068, 4065,  131
4069,  133, 4066
4070, 4066, 4067
4071, 4067, 4068
4072, 4068, 4069
4073, 4069, 4070
4074, 4070, 4071
4075, 4071, 4072
4076, 4072, 4073
4077, 4073, 4074
4078, 4074, 4075
4079, 4075, 4076
4080, 4076, 4077
4081, 4077, 4078
4082, 4078, 4079
4083, 4079, 4080
4084, 4080, 4081
4085, 4081, 4082
4086, 4082, 4083
4087, 4083, 4084
4088, 4084, 4085
4089, 4085, 4086
4090, 4086, 4087
4091, 4087, 4088
4092, 4088, 4089
4093, 4089, 4090
4094, 4090, 4091
4095, 4091, 4092
4096, 4092, 4093
4097, 4093, 4094
4098, 4094, 4095
4099, 4095, 4096
4100, 4096, 4097
4101, 4097, 4098
4102, 4098, 4099
4103, 4099, 4100
4104, 4100, 4101
4105, 4101, 4102
4106, 4102, 4103
4107, 4103, 4104
4108, 4104, 4105
4109, 4105, 4106
4110, 4106, 4107
4111, 4107, 4108
4112, 4108, 4109
4113, 4109, 4110
4114, 4110, 4111
4115, 4111, 4112
4116, 4112, 4113
4117, 4113, 4114
4118, 4114, 4115
4119, 4115, 4116
4120, 4116, 4117
4121, 4117, 4118
4122, 4118, 4119
4123, 4119, 4120
4124, 4120, 4121
4125, 4121, 4122
4126, 4122, 4123
4127, 4123, 4124
4128, 4124, 4125
4129, 4125, 4126
4130, 4126, 4127
4131, 4127, 4128
4132, 4128, 4129
4133, 4129,   49
4134,  134, 4130
4135, 4130, 4131
4136, 4131, 4132
4137, 4132, 4133
4138, 4133, 4134
4139, 4134, 4135
4140, 4135, 4136
4141, 4136, 4137
4142, 4137, 4138
4143, 4138, 4139
4144, 4139, 4140
4145, 4140, 4141
4146, 4141, 4142
4147, 4142, 4143
4148, 4143, 4144
4149, 4144, 4145
4150, 4145,  133
4151,  135, 4146
4152, 4146, 4147
4153, 4147, 4148
4154, 4148, 4149
4155, 4149,   52
4156,  136, 4150
4157, 4150, 4151
4158, 4151, 4152
4159, 4152, 4153
4160, 4153, 4154
4161, 4154, 4155
4162, 4155, 4156
4163, 4156, 4157
4164, 4157, 4158
4165, 4158, 4159
4166, 4159, 4160
4167, 4160, 4161
4168, 4161, 4162
4169, 4162, 4163
4170, 4163, 4164
4171, 4164, 4165
4172, 4165, 4166
4173, 4166, 4167
4174, 4167, 4168
4175, 4168, 4169
4176, 4169, 4170
4177, 4170, 4171
4178, 4171, 4172
4179, 4172, 4173
4180, 4173, 4174
4181, 4174, 4175
4182, 4175, 4176
4183, 4176, 4177
4184, 4177, 4178
4185, 4178, 4179
4186, 4179, 4180
4187, 4180, 4181
4188, 4181, 4182
4189, 4182, 4183
4190, 4183, 4184
4191, 4184, 4185
4192, 4185,  135
4193,  137, 4186
4194, 4186, 4187
4195, 4187, 4188
4196, 4188, 4189
4197, 4189, 4190
4198, 4190, 4191
4199, 4191, 4192
4200, 4192, 4193
4201, 4193, 4194
4202, 4194, 4195
4203, 4195, 4196
4204, 4196, 4197
4205, 4197, 4198
4206, 4198, 4199
4207, 4199, 4200
4208, 4200, 4201
4209, 4201, 4202
4210, 4202, 4203
4211, 4203, 4204
4212, 4204, 4205
4213, 4205, 4206
4214, 4206, 4207
4215, 4207, 4208
4216, 4208, 4209
4217, 4209, 4210
4218, 4210, 4211
4219, 4211, 4212
4220, 4212, 4213
4221, 4213, 4214
4222, 4214, 4215
4223, 4215, 4216
4224, 4216, 4217
4225, 4217, 4218
4226, 4218, 4219
4227, 4219, 4220
4228, 4220, 4221
4229, 4221, 4222
4230, 4222, 4223
4231, 4223, 4224
4232, 4224, 4225
4233, 4225, 4226
4234, 4226, 4227
4235, 4227, 4228
4236, 4228, 4229
4237, 4229, 4230
4238, 4230, 4231
4239, 4231, 4232
4240, 4232, 4233
4241, 4233, 4234
4242, 4234, 4235
4243, 4235, 4236
4244, 4236, 4237
4245, 4237, 4238
4246, 4238, 4239
4247, 4239, 4240
4248, 4240, 4241
4249, 4241, 4242
4250, 4242, 4243
4251, 4243, 4244
4252, 4244, 4245
4253, 4245, 4246
4254, 4246, 4247
4255, 4247, 4248
4256, 4248, 4249
4257, 4249,   55
4258,  138, 4250
4259, 4250, 4251
4260, 4251, 4252
4261, 4252, 4253
4262, 4253, 4254
4263, 4254, 4255
4264, 4255, 4256
4265, 4256, 4257
4266, 4257, 4258
4267, 4258, 4259
4268, 4259, 4260
4269, 4260, 4261
4270, 4261, 4262
4271, 4262, 4263
4272, 4263, 4264
4273, 4264, 4265
4274, 4265,  137
4275,  139, 4266
4276, 4266, 4267
4277, 4267, 4268
4278, 4268, 4269
4279, 4269,   58
4280,  140, 4270
4281, 4270, 4271
4282, 4271, 4272
4283, 4272, 4273
4284, 4273, 4274
4285, 4274, 4275
4286, 4275, 4276
4287, 4276, 4277
4288, 4277, 4278
4289, 4278, 4279
4290, 4279, 4280
4291, 4280, 4281
4292, 4281, 4282
4293, 4282, 4283
4294, 4283, 4284
4295, 4284, 4285
4296, 4285, 4286
4297, 4286, 4287
4298, 4287, 4288
4299, 4288, 4289
4300, 4289, 4290
4301, 4290, 4291
4302, 4291, 4292
4303, 4292, 4293
4304, 4293, 4294
4305, 4294, 4295
4306, 4295, 4296
4307, 4296, 4297
4308, 4297, 4298
4309, 4298, 4299
4310, 4299, 4300
4311, 4300, 4301
4312, 4301, 4302
4313, 4302, 4303
4314, 4303, 4304
4315, 4304, 4305
4316, 4305,  139
4317,  103, 4306
4318, 4306, 4307
4319, 4307, 4308
4320, 4308, 4309
4321, 4309, 4310
4322, 4310, 4311
4323, 4311, 4312
4324, 4312, 4313
4325, 4313, 4314
4326, 4314, 4315
4327, 4315, 4316
4328, 4316, 4317
4329, 4317, 4318
4330, 4318, 4319
4331, 4319, 4320
4332, 4320, 4321
4333, 4321, 4322
4334, 4322, 4323
4335, 4323, 4324
4336, 4324, 4325
4337, 4325, 4326
4338, 4326, 4327
4339, 4327, 4328
4340, 4328, 4329
4341, 4329, 4330
4342, 4330, 4331
4343, 4331, 4332
4344, 4332, 4333
4345, 4333, 4334
4346, 4334, 4335
4347, 4335, 4336
4348, 4336, 4337
4349, 4337, 4338
4350, 4338, 4339
4351, 4339, 4340
4352, 4340, 4341
4353, 4341, 4342
4354, 4342, 4343
4355, 4343, 4344
4356, 4344, 4345
4357, 4345, 4346
4358, 4346, 4347
4359, 4347, 4348
4360, 4348, 4349
4361, 4349, 4350
4362, 4350, 4351
4363, 4351, 4352
4364, 4352, 4353
4365, 4353, 4354
4366, 4354, 4355
4367, 4355, 4356
4368, 4356, 4357
4369, 4357, 4358
4370, 4358, 4359
4371, 4359, 4360
4372, 4360, 4361
4373, 4361, 4362
4374, 4362, 4363
4375, 4363, 4364
4376, 4364, 4365
4377, 4365, 4366
4378, 4366, 4367
4379, 4367, 4368
4380, 4368, 4369
4381, 4369, 4370
4382, 4370, 4371
4383, 4371, 4372
4384, 4372, 4373
4385, 4373, 4374
4386, 4374, 4375
4387, 4375, 4376
4388, 4376, 4377
4389, 4377, 4378
4390, 4378, 4379
4391, 4379, 4380
4392, 4380, 4381
4393, 4381, 4382
4394, 4382, 4383
4395, 4383, 4384
4396, 4384, 4385
4397, 4385, 4386
4398, 4386, 4387
4399, 4387, 4388
4400, 4388, 4389
4401, 4389, 4390
4402, 4390, 4391
4403, 4391, 4392
4404, 4392,   61
4405,  127, 4393
4406, 4393, 4394
4407, 4394, 4395
4408, 4395, 4396
4409, 4396, 4397
4410, 4397, 4398
4411, 4398, 4399
4412, 4399, 4400
4413, 4400, 4401
4414, 4401, 4402
4415, 4402, 4403
4416, 4403, 4404
4417, 4404, 4405
4418, 4405, 4406
4419, 4406, 4407
4420, 4407, 4408
4421, 4408, 4409
4422, 4409, 4410
4423, 4410, 4411
4424, 4411, 4412
4425, 4412, 4413
4426, 4413, 4414
4427, 4414, 4415
4428, 4415, 4416
4429, 4416, 4417
4430, 4417, 4418
4431, 4418, 4419
4432, 4419, 4420
4433, 4420, 4421
4434, 4421, 4422
4435, 4422, 4423
4436, 4423, 4424
4437, 4424, 4425
4438, 4425, 4426
4439, 4426, 4427
4440, 4427, 4428
4441, 4428, 4429
4442, 4429, 4430
4443, 4430, 4431
4444, 4431, 4432
4445, 4432, 4433
4446, 4433, 4434
4447, 4434, 4435
4448, 4435, 4436
4449, 4436, 4437
4450, 4437, 4438
4451, 4438, 4439
4452, 4439, 4440
4453, 4440, 4441
4454, 4441, 4442
4455, 4442, 4443
4456, 4443, 4444
4457, 4444, 4445
4458, 4445, 4446
4459, 4446, 4447
4460, 4447, 4448
4461, 4448, 4449
4462, 4449, 4450
4463, 4450, 4451
4464, 4451, 4452
4465, 4452, 4453
4466, 4453, 4454
4467, 4454, 4455
4468, 4455, 4456
4469, 4456, 4457
4470, 4457, 4458
4471, 4458, 4459
4472, 4459, 4460
4473, 4460, 4461
4474, 4461, 4462
4475, 4462, 4463
4476, 4463, 4464
4477, 4464, 4465
4478, 4465, 4466
4479, 4466, 4467
4480, 4467, 4468
4481, 4468, 4469
4482, 4469, 4470
4483, 4470, 4471
4484, 4471, 4472
4485, 4472, 4473
4486, 4473, 4474
4487, 4474, 4475
4488, 4475, 4476
4489, 4476, 4477
4490, 4477, 4478
4491, 4478, 4479
4492, 4479,  125
4493,  131, 4480
4494, 4480, 4481
4495, 4481, 4482
4496, 4482, 4483
4497, 4483, 4484
4498, 4484, 4485
4499, 4485, 4486
4500, 4486, 4487
4501, 4487, 4488
4502, 4488, 4489
4503, 4489, 4490
4504, 4490, 4491
4505, 4491, 4492
4506, 4492, 4493
4507, 4493, 4494
4508, 4494, 4495
4509, 4495, 4496
4510, 4496, 4497
4511, 4497, 4498
4512, 4498, 4499
4513, 4499, 4500
4514, 4500, 4501
4515, 4501, 4502
4516, 4502, 4503
4517, 4503, 4504
4518, 4504, 4505
4519, 4505, 4506
4520, 4506, 4507
4521, 4507, 4508
4522, 4508, 4509
4523, 4509, 4510
4524, 4510, 4511
4525, 4511, 4512
4526, 4512, 4513
4527, 4513, 4514
4528, 4514, 4515
4529, 4515, 4516
4530, 4516, 4517
4531, 4517, 4518
4532, 4518, 4519
4533, 4519, 4520
4534, 4520, 4521
4535, 4521, 4522
4536, 4522, 4523
4537, 4523, 4524
4538, 4524, 4525
4539, 4525, 4526
4540, 4526, 4527
4541, 4527, 4528
4542, 4528, 4529
4543, 4529, 4530
4544, 4530, 4531
4545, 4531, 4532
4546, 4532, 4533
4547, 4533, 4534
4548, 4534, 4535
4549, 4535, 4536
4550, 4536, 4537
4551, 4537, 4538
4552, 4538, 4539
4553, 4539, 4540
4554, 4540, 4541
4555, 4541, 4542
4556, 4542, 4543
4557, 4543, 4544
4558, 4544, 4545
4559, 4545, 4546
4560, 4546, 4547
4561, 4547, 4548
4562, 4548, 4549
4563, 4549, 4550
4564, 4550, 4551
4565, 4551, 4552
4566, 4552, 4553
4567, 4553, 4554
4568, 4554, 4555
4569, 4555, 4556
4570, 4556, 4557
4571, 4557, 4558
4572, 4558, 4559
4573, 4559, 4560
4574, 4560, 4561
4575, 4561, 4562
4576, 4562, 4563
4577, 4563, 4564
4578, 4564, 4565
4579, 4565, 4566
4580, 4566,  129
4581,  135, 4567
4582, 4567, 4568
4583, 4568, 4569
4584, 4569, 4570
4585, 4570, 4571
4586, 4571, 4572
4587, 4572, 4573
4588, 4573, 4574
4589, 4574, 4575
4590, 4575, 4576
4591, 4576, 4577
4592, 4577, 4578
4593, 4578, 4579
4594, 4579, 4580
4595, 4580, 4581
4596, 4581, 4582
4597, 4582, 4583
4598, 4583, 4584
4599, 4584, 4585
4600, 4585, 4586
4601, 4586, 4587
4602, 4587, 4588
4603, 4588, 4589
4604, 4589, 4590
4605, 4590, 4591
4606, 4591, 4592
4607, 4592, 4593
4608, 4593, 4594
4609, 4594, 4595
4610, 4595, 4596
4611, 4596, 4597
4612, 4597, 4598
4613, 4598, 4599
4614, 4599, 4600
4615, 4600, 4601
4616, 4601, 4602
4617, 4602, 4603
4618, 4603, 4604
4619, 4604, 4605
4620, 4605, 4606
4621, 4606, 4607
4622, 4607, 4608
4623, 4608, 4609
4624, 4609, 4610
4625, 4610, 4611
4626, 4611, 4612
4627, 4612, 4613
4628, 4613, 4614
4629, 4614, 4615
4630, 4615, 4616
4631, 4616, 4617
4632, 4617, 4618
4633, 4618, 4619
4634, 4619, 4620
4635, 4620, 4621
4636, 4621, 4622
4637, 4622, 4623
4638, 4623, 4624
4639, 4624, 4625
4640, 4625, 4626
4641, 4626, 4627
4642, 4627, 4628
4643, 4628, 4629
4644, 4629, 4630
4645, 4630, 4631
4646, 4631, 4632
4647, 4632, 4633
4648, 4633, 4634
4649, 4634, 4635
4650, 4635, 4636
4651, 4636, 4637
4652, 4637, 4638
4653, 4638, 4639
4654, 4639, 4640
4655, 4640, 4641
4656, 4641, 4642
4657, 4642, 4643
4658, 4643, 4644
4659, 4644, 4645
4660, 4645, 4646
4661, 4646, 4647
4662, 4647, 4648
4663, 4648, 4649
4664, 4649, 4650
4665, 4650, 4651
4666, 4651, 4652
4667, 4652, 4653
4668, 4653,  133
4669,  139, 4654
4670, 4654, 4655
4671, 4655, 4656
4672, 4656, 4657
4673, 4657, 4658
4674, 4658, 4659
4675, 4659, 4660
4676, 4660, 4661
4677, 4661, 4662
4678, 4662, 4663
4679, 4663, 4664
4680, 4664, 4665
4681, 4665, 4666
4682, 4666, 4667
4683, 4667, 4668
4684, 4668, 4669
4685, 4669, 4670
4686, 4670, 4671
4687, 4671, 4672
4688, 4672, 4673
4689, 4673, 4674
4690, 4674, 4675
4691, 4675, 4676
4692, 4676, 4677
4693, 4677, 4678
4694, 4678, 4679
4695, 4679, 4680
4696, 4680, 4681
4697, 4681, 4682
4698, 4682, 4683
4699, 4683, 4684
4700, 4684, 4685
4701, 4685, 4686
4702, 4686, 4687
4703, 4687, 4688
4704, 4688, 4689
4705, 4689, 4690
4706, 4690, 4691
4707, 4691, 4692
4708, 4692, 4693
4709, 4693, 4694
4710, 4694, 4695
4711, 4695, 4696
4712, 4696, 4697
4713, 4697, 4698
4714, 4698, 4699
4715, 4699, 4700
4716, 4700, 4701
4717, 4701, 4702
4718, 4702, 4703
4719, 4703, 4704
4720, 4704, 4705
4721, 4705, 4706
4722, 4706, 4707
4723, 4707, 4708
4724, 4708, 4709
4725, 4709, 4710
4726, 4710, 4711
4727, 4711, 4712
4728, 4712, 4713
4729, 4713, 4714
4730, 4714, 4715
4731, 4715, 4716
4732, 4716, 4717
4733, 4717, 4718
4734, 4718, 4719
4735, 4719, 4720
4736, 4720, 4721
4737, 4721, 4722
4738, 4722, 4723
4739, 4723, 4724
4740, 4724, 4725
4741, 4725, 4726
4742, 4726, 4727
4743, 4727, 4728
4744, 4728, 4729
4745, 4729, 4730
4746, 4730, 4731
4747, 4731, 4732
4748, 4732, 4733
4749, 4733, 4734
4750, 4734, 4735
4751, 4735, 4736
4752, 4736, 4737
4753, 4737, 4738
4754, 4738, 4739
4755, 4739, 4740
4756, 4740,  137
*Nset, nset=P2
    2,    3,    5,    9,   15,   21,   27,   28,   29,   30,   31,   32,   33,   34,   35,   36
   37,   38,   39,   40,   41,   42,   43,   44,   45,   46,   47,   48,   49,   50,   51,   52
   53,   54,   55,   56,   57,   58,   59,   60,  156,  157,  158,  159,  160,  161,  162,  163
  164,  165,  166,  167,  168,  169,  170,  171,  172,  173,  174,  207,  208,  209,  210,  211
  212,  213,  214,  215,  216,  217,  218,  872,  873,  874,  875,  876,  877,  878,  879,  880
  881,  882,  883,  884,  885,  886,  887,  888,  889,  890,  891,  892,  893,  894,  895,  896
  897,  898,  899,  900,  901,  902,  903,  904,  905,  906,  907,  908,  909,  910,  911,  912
  913,  914,  915,  916,  917,  918,  919,  920,  921,  922,  923,  924,  925,  926,  927,  928
  929,  930,  931,  932,  933,  934,  935,  936,  937,  938,  939,  940,  941,  942,  943,  944
  945,  946,  947,  948,  949,  950,  951,  952,  953,  954,  955,  956,  957,  958,  959,  960
  961,  962,  963,  964,  965,  966,  967,  968,  969,  970,  971,  972,  973,  974,  975,  976
  977,  978,  979,  980,  981,  982,  983,  984,  985,  986,  987,  988,  989,  990,  991,  992
  993,  994,  995,  996,  997,  998,  999, 1000, 1001, 1002, 1003, 1004, 1005, 1006, 1007, 1008
 1009, 1010, 1011, 1012, 1013, 1014, 1015, 1016, 1017, 1018, 1019, 1020, 1021, 1022, 1023, 1024
 1025, 1026, 1027, 1028, 1029, 1030, 1031, 1032, 1033, 1034, 1035, 1036, 1037, 1038, 1039, 1040
 1041, 1042, 1043, 1044, 1045, 1046, 1047, 1048, 1049, 1050, 1051, 1052, 1053, 1054, 1055, 1056
 1057, 1058, 1059, 1060, 1061, 1062, 1063, 1064, 1065, 1066, 1067, 1068, 1069, 1070, 1071, 1072
 1073, 1074, 1075, 1076, 1077, 1078, 1079, 1080, 1081, 1082, 1083, 1084, 1085, 1086, 1087, 1088
 1089, 1090, 1091, 1092, 1093, 1094, 1095, 1096, 1097, 1098, 1099, 1100, 1101, 1102, 1103, 1104
 1105, 1106, 1107, 1108, 1109, 1110, 1111, 1112, 1113, 1114, 1115, 1116, 1117, 1118, 1119, 1120
 1121, 1122, 1123, 1124, 1125, 1126, 1127, 1128, 1129, 1130, 1131, 1132, 1133, 1134, 1135, 1136
 1137, 1138, 1139, 1140, 1141, 1142, 1143, 1144, 1145, 1146, 1147, 1148, 1149, 1150, 1151, 1152
 1153, 1154, 1155, 1156, 1157, 1158, 1159, 1160, 1161, 1162, 1163, 1164, 1165, 1166, 1167, 1168
 1169, 1170, 1171, 1172, 1173, 1174, 1175, 1176, 1177, 1178, 1179, 1180, 1181, 1182, 1183, 1184
 1185, 1186, 1187, 1188, 1189, 1190, 1191, 1192, 1193, 1194, 1195, 1196, 1197, 1198, 1199, 1200
 1201, 1202, 1203, 1204, 1205, 1206, 1207, 1208, 1209, 1210, 1211, 1212, 1213, 1214, 1215, 1216
 1217, 1218, 1219, 1220, 1221, 1222, 1223, 1224, 1225, 1226, 1227, 1228, 1229, 1230, 1231, 1232
 1233, 1234, 1235, 1236, 1237, 1238, 1239, 1240, 1241, 1242, 1243, 1244, 1245, 1246, 1247, 1248
 1249, 1250, 1251, 1252, 1253, 1254, 1255, 1256, 1257, 1258, 1259, 1260, 1261, 1262, 1263, 1264
 1265, 1266, 1267, 1268, 1269, 1270, 1271, 1272, 1273, 1274, 1275, 1276, 1277, 1278, 1279, 1280
 1281, 1282, 1283, 1284, 1285, 1286, 1287, 1288, 1289, 1290, 1291, 1292, 1293, 1294, 1295, 1296
 1297, 1298, 1299, 1300, 1301, 1302, 1303, 1304, 1305, 1306, 1307, 1308, 1309, 1310, 1311, 1312
 1313, 1314, 1315, 1316, 1317, 1318, 1319, 1320, 1321, 1322, 1323, 1324, 1325, 1326, 1327, 1328
 1329, 1330, 1331, 1332, 1333, 1334, 1335, 1336, 1337, 1338, 1339, 1340, 1341, 1342, 1343, 1344
 1345, 1346, 1347, 1348, 1349, 1350, 1351, 1352, 1353, 1354, 1355, 1356, 1357, 1358, 1359, 1360
 1361, 1362, 1363, 1364, 1365, 1366, 1367, 1368, 1369, 1370, 1371, 1372, 1373, 1374, 1375, 1376
 1377, 1378, 1379, 1380, 1381, 1382, 1383, 1384, 1385, 1386, 1387, 1388, 1389, 1390, 1391, 1392
 1393, 1394, 1395, 1396, 1397, 1398, 1399, 1400, 1401, 1402, 1403, 1404, 1405, 1406, 1407, 1408
 1409, 1410, 1411, 1412, 1413, 1414, 1415, 1416, 1417, 1418, 1419, 1420, 1421, 1422, 1423, 1424
 1425, 1426, 1427, 1428, 1429, 1430, 1431, 1432, 1433, 1434, 1435, 1436, 1437, 1438, 1439, 1440
 1441, 1442, 1443, 1444, 1445, 1446, 1447, 1448, 1449, 1450, 1451, 1452, 1453, 1454, 1455, 1456
 1457, 1458, 1459, 1460, 1461, 1462, 1463, 1464, 1465, 1466, 1467, 1468, 1469, 1470, 1471, 1472
 1473, 1474, 1475, 1476, 1477, 1478, 1479, 1480, 1481, 1482, 1483, 1484, 1485, 1486, 1487, 1488
 1489, 1490, 1491, 1492, 1493, 1494, 1495, 1496, 1497, 1498, 1499, 1500, 1501, 1502, 1503, 1504
 1505, 1506, 1507, 1508, 1509, 1510, 1511, 1512, 1513, 1514, 1515, 1516, 1517, 1518, 1519, 1520
 1521, 1522, 1523, 1524, 1525, 1526, 1527, 1528, 1529, 1530, 1531, 1532, 1533, 1534, 1535, 1536
 1537, 1538, 1539, 1540, 1541, 1542, 1543, 1544, 1545, 1546, 1547, 1548, 1549, 1550, 1551, 1552
 1553, 1554, 1555, 1556, 1557, 1558, 1559, 1560, 1561, 1562, 1563, 1564, 1565, 1566, 1567, 1568
 1569, 1570, 1571, 1572, 1573, 1574, 1575, 1576, 1577, 1578, 1579, 1580, 1581, 1582, 1583, 1584
 1585, 1586, 1587, 1588, 1589, 1590, 1591, 1592, 1593, 1594, 1595, 1596, 1597, 1598, 1599, 1600
 1601, 1602, 1603, 1604, 1605
*Elset, elset=P2
   17,   18,   19,   20,   21,   22,   23,   24,   25,   26,   27,   28,   29,   30,   31,   32
   33,   34,   35,   36,   70,   71,   72,   73,   74,   75,   76,   77,   78,   79,   80,   81
   82,  758,  759,  760,  761,  762,  763,  764,  765,  766,  767,  768,  769,  770,  771,  772
  773,  774,  775,  776,  777,  778,  779,  780,  781,  782,  783,  784,  785,  786,  787,  788
  789,  790,  791,  792,  793,  794,  795,  796,  797,  798,  799,  800,  801,  802,  803,  804
  805,  806,  807,  808,  809,  810,  811,  812,  813,  814,  815,  816,  817,  818,  819,  820
  821,  822,  823,  824,  825,  826,  827,  828,  829,  830,  831,  832,  833,  834,  835,  836
  837,  838,  839,  840,  841,  842,  843,  844,  845,  846,  847,  848,  849,  850,  851,  852
  853,  854,  855,  856,  857,  858,  859,  860,  861,  862,  863,  864,  865,  866,  867,  868
  869,  870,  871,  872,  873,  874,  875,  876,  877,  878,  879,  880,  881,  882,  883,  884
  885,  886,  887,  888,  889,  890,  891,  892,  893,  894,  895,  896,  897,  898,  899,  900
  901,  902,  903,  904,  905,  906,  907,  908,  909,  910,  911,  912,  913,  914,  915,  916
  917,  918,  919,  920,  921,  922,  923,  924,  925,  926,  927,  928,  929,  930,  931,  932
  933,  934,  935,  936,  937,  938,  939,  940,  941,  942,  943,  944,  945,  946,  947,  948
  949,  950,  951,  952,  953,  954,  955,  956,  957,  958,  959,  960,  961,  962,  963,  964
  965,  966,  967,  968,  969,  970,  971,  972,  973,  974,  975,  976,  977,  978,  979,  980
  981,  982,  983,  984,  985,  986,  987,  988,  989,  990,  991,  992,  993,  994,  995,  996
  997,  998,  999, 1000, 1001, 1002, 1003, 1004, 1005, 1006, 1007, 1008, 1009, 1010, 1011, 1012
 1013, 1014, 1015, 1016, 1017, 1018, 1019, 1020, 1021, 1022, 1023, 1024, 1025, 1026, 1027, 1028
 1029, 1030, 1031, 1032, 1033, 1034, 1035, 1036, 1037, 1038, 1039, 1040, 1041, 1042, 1043, 1044
 1045, 1046, 1047, 1048, 1049, 1050, 1051, 1052, 1053, 1054, 1055, 1056, 1057, 1058, 1059, 1060
 1061, 1062, 1063, 1064, 1065, 1066, 1067, 1068, 1069, 1070, 1071, 1072, 1073, 1074, 1075, 1076
 1077, 1078, 1079, 1080, 1081, 1082, 1083, 1084, 1085, 1086, 1087, 1088, 1089, 1090, 1091, 1092
 1093, 1094, 1095, 1096, 1097, 1098, 1099, 1100, 1101, 1102, 1103, 1104, 1105, 1106, 1107, 1108
 1109, 1110, 1111, 1112, 1113, 1114, 1115, 1116, 1117, 1118, 1119, 1120, 1121, 1122, 1123, 1124
 1125, 1126, 1127, 1128, 1129, 1130, 1131, 1132, 1133, 1134, 1135, 1136, 1137, 1138, 1139, 1140
 1141, 1142, 1143, 1144, 1145, 1146, 1147, 1148, 1149, 1150, 1151, 1152, 1153, 1154, 1155, 1156
 1157, 1158, 1159, 1160, 1161, 1162, 1163, 1164, 1165, 1166, 1167, 1168, 1169, 1170, 1171, 1172
 1173, 1174, 1175, 1176, 1177, 1178, 1179, 1180, 1181, 1182, 1183, 1184, 1185, 1186, 1187, 1188
 1189, 1190, 1191, 1192, 1193, 1194, 1195, 1196, 1197, 1198, 1199, 1200, 1201, 1202, 1203, 1204
 1205, 1206, 1207, 1208, 1209, 1210, 1211, 1212, 1213, 1214, 1215, 1216, 1217, 1218, 1219, 1220
 1221, 1222, 1223, 1224, 1225, 1226, 1227, 1228, 1229, 1230, 1231, 1232, 1233, 1234, 1235, 1236
 1237, 1238, 1239, 1240, 1241, 1242, 1243, 1244, 1245, 1246, 1247, 1248, 1249, 1250, 1251, 1252
 1253, 1254, 1255, 1256, 1257, 1258, 1259, 1260, 1261, 1262, 1263, 1264, 1265, 1266, 1267, 1268
 1269, 1270, 1271, 1272, 1273, 1274, 1275, 1276, 1277, 1278, 1279, 1280, 1281, 1282, 1283, 1284
 1285, 1286, 1287, 1288, 1289, 1290, 1291, 1292, 1293, 1294, 1295, 1296, 1297, 1298, 1299, 1300
 1301, 1302, 1303, 1304, 1305, 1306, 1307, 1308, 1309, 1310, 1311, 1312, 1313, 1314, 1315, 1316
 1317, 1318, 1319, 1320, 1321, 1322, 1323, 1324, 1325, 1326, 1327, 1328, 1329, 1330, 1331, 1332
 1333, 1334, 1335, 1336, 1337, 1338, 1339, 1340, 1341, 1342, 1343, 1344, 1345, 1346, 1347, 1348
 1349, 1350, 1351, 1352, 1353, 1354, 1355, 1356, 1357, 1358, 1359, 1360, 1361, 1362, 1363, 1364
 1365, 1366, 1367, 1368, 1369, 1370, 1371, 1372, 1373, 1374, 1375, 1376, 1377, 1378, 1379, 1380
 1381, 1382, 1383, 1384, 1385, 1386, 1387, 1388, 1389, 1390, 1391, 1392, 1393, 1394, 1395, 1396
 1397, 1398, 1399, 1400, 1401, 1402, 1403, 1404, 1405, 1406, 1407, 1408, 1409, 1410, 1411, 1412
 1413, 1414, 1415, 1416, 1417, 1418, 1419, 1420, 1421, 1422, 1423, 1424, 1425, 1426, 1427, 1428
 1429, 1430, 1431, 1432, 1433, 1434, 1435, 1436, 1437, 1438, 1439, 1440, 1441, 1442, 1443, 1444
 1445, 1446, 1447, 1448, 1449, 1450, 1451, 1452, 1453, 1454, 1455, 1456, 1457, 1458, 1459, 1460
 1461, 1462, 1463, 1464, 1465, 1466, 1467, 1468, 1469, 1470, 1471, 1472, 1473, 1474, 1475, 1476
 1477, 1478, 1479, 1480, 1481, 1482, 1483, 1484, 1485, 1486, 1487, 1488, 1489, 1490, 1491, 1492
 1493, 1494, 1495, 1496, 1497, 1498, 1499, 1500, 1501, 1502, 1503, 1504, 1505, 1506, 1507, 1508
 1509, 1510, 1511, 1512, 1513, 1514, 1515, 1516, 1517, 1518, 1519, 1520, 1521, 1522, 1523, 1524
*Nset, nset=P3
   31,   38,   45,   52,   58,  103,  104,  127,  128,  131,  132,  135,  136,  139,  140, 3086
 3087, 3088, 3089, 3090, 3091, 3092, 3093, 3094, 3095, 3096, 3097, 3098, 3099, 3100, 3101, 3102
 3103, 3104, 3105, 3106, 3107, 3108, 3109, 3110, 3111, 3112, 3113, 3114, 3115, 3116, 3117, 3118
 3119, 3120, 3121, 3122, 3123, 3124, 3125, 3906, 3907, 3908, 3909, 3910, 3911, 3912, 3913, 3914
 3915, 3916, 3917, 3918, 3919, 3920, 3921, 3922, 3923, 3924, 3925, 3926, 3927, 3928, 3929, 3930
 3931, 3932, 3933, 3934, 3935, 3936, 3937, 3938, 3939, 3940, 3941, 3942, 3943, 3944, 3945, 4026
 4027, 4028, 4029, 4030, 4031, 4032, 4033, 4034, 4035, 4036, 4037, 4038, 4039, 4040, 4041, 4042
 4043, 4044, 4045, 4046, 4047, 4048, 4049, 4050, 4051, 4052, 4053, 4054, 4055, 4056, 4057, 4058
 4059, 4060, 4061, 4062, 4063, 4064, 4065, 4146, 4147, 4148, 4149, 4150, 4151, 4152, 4153, 4154
 4155, 4156, 4157, 4158, 4159, 4160, 4161, 4162, 4163, 4164, 4165, 4166, 4167, 4168, 4169, 4170
 4171, 4172, 4173, 4174, 4175, 4176, 4177, 4178, 4179, 4180, 4181, 4182, 4183, 4184, 4185, 4266
 4267, 4268, 4269, 4270, 4271, 4272, 4273, 4274, 4275, 4276, 4277, 4278, 4279, 4280, 4281, 4282
 4283, 4284, 4285, 4286, 4287, 4288, 4289, 4290, 4291, 4292, 4293, 4294, 4295, 4296, 4297, 4298
 4299, 4300, 4301, 4302, 4303, 4304, 4305
*Elset, elset=P3
 3055, 3056, 3057, 3058, 3059, 3060, 3061, 3062, 3063, 3064, 3065, 3066, 3067, 3068, 3069, 3070
 3071, 3072, 3073, 3074, 3075, 3076, 3077, 3078, 3079, 3080, 3081, 3082, 3083, 3084, 3085, 3086
 3087, 3088, 3089, 3090, 3091, 3092, 3093, 3094, 3095, 3096, 3903, 3904, 3905, 3906, 3907, 3908
 3909, 3910, 3911, 3912, 3913, 3914, 3915, 3916, 3917, 3918, 3919, 3920, 3921, 3922, 3923, 3924
 3925, 3926, 3927, 3928, 3929, 3930, 3931, 3932, 3933, 3934, 3935, 3936, 3937, 3938, 3939, 3940
 3941, 3942, 3943, 3944, 4027, 4028, 4029, 4030, 4031, 4032, 4033, 4034, 4035, 4036, 4037, 4038
 4039, 4040, 4041, 4042, 4043, 4044, 4045, 4046, 4047, 4048, 4049, 4050, 4051, 4052, 4053, 4054
 4055, 4056, 4057, 4058, 4059, 4060, 4061, 4062, 4063, 4064, 4065, 4066, 4067, 4068, 4151, 4152
 4153, 4154, 4155, 4156, 4157, 4158, 4159, 4160, 4161, 4162, 4163, 4164, 4165, 4166, 4167, 4168
 4169, 4170, 4171, 4172, 4173, 4174, 4175, 4176, 4177, 4178, 4179, 4180, 4181, 4182, 4183, 4184
 4185, 4186, 4187, 4188, 4189, 4190, 4191, 4192, 4275, 4276, 4277, 4278, 4279, 4280, 4281, 4282
 4283, 4284, 4285, 4286, 4287, 4288, 4289, 4290, 4291, 4292, 4293, 4294, 4295, 4296, 4297, 4298
 4299, 4300, 4301, 4302, 4303, 4304, 4305, 4306, 4307, 4308, 4309, 4310, 4311, 4312, 4313, 4314
 4315, 4316
*Nset, nset=P4
    5,   35,   42,   49,   55,   61,   62,  125,  126,  129,  130,  133,  134,  137,  138, 1606
 1607, 1608, 1609, 1610, 1611, 1612, 1613, 1614, 1615, 1616, 1617, 1618, 1619, 1620, 1621, 1622
 1623, 1624, 1625, 1626, 1627, 1628, 1629, 1630, 1631, 1632, 1633, 1634, 1635, 1636, 1637, 1638
 1639, 1640, 1641, 1642, 1643, 1644, 1645, 1646, 1647, 1648, 1649, 1650, 1651, 1652, 1653, 1654
 1655, 1656, 1657, 1658, 1659, 1660, 1661, 1662, 1663, 1664, 1665, 1666, 1667, 1668, 1669, 1670
 1671, 1672, 1673, 1674, 1675, 1676, 1677, 1678, 1679, 1680, 1681, 1682, 1683, 1684, 1685, 3826
 3827, 3828, 3829, 3830, 3831, 3832, 3833, 3834, 3835, 3836, 3837, 3838, 3839, 3840, 3841, 3842
 3843, 3844, 3845, 3846, 3847, 3848, 3849, 3850, 3851, 3852, 3853, 3854, 3855, 3856, 3857, 3858
 3859, 3860, 3861, 3862, 3863, 3864, 3865, 3866, 3867, 3868, 3869, 3870, 3871, 3872, 3873, 3874
 3875, 3876, 3877, 3878, 3879, 3880, 3881, 3882, 3883, 3884, 3885, 3886, 3887, 3888, 3889, 3890
 3891, 3892, 3893, 3894, 3895, 3896, 3897, 3898, 3899, 3900, 3901, 3902, 3903, 3904, 3905, 3946
 3947, 3948, 3949, 3950, 3951, 3952, 3953, 3954, 3955, 3956, 3957, 3958, 3959, 3960, 3961, 3962
 3963, 3964, 3965, 3966, 3967, 3968, 3969, 3970, 3971, 3972, 3973, 3974, 3975, 3976, 3977, 3978
 3979, 3980, 3981, 3982, 3983, 3984, 3985, 3986, 3987, 3988, 3989, 3990, 3991, 3992, 3993, 3994
 3995, 3996, 3997, 3998, 3999, 4000, 4001, 4002, 4003, 4004, 4005, 4006, 4007, 4008, 4009, 4010
 4011, 4012, 4013, 4014, 4015, 4016, 4017, 4018, 4019, 4020, 4021, 4022, 4023, 4024, 4025, 4066
 4067, 4068, 4069, 4070, 4071, 4072, 4073, 4074, 4075, 4076, 4077, 4078, 4079, 4080, 4081, 4082
 4083, 4084, 4085, 4086, 4087, 4088, 4089, 4090, 4091, 4092, 4093, 4094, 4095, 4096, 4097, 4098
 4099, 4100, 4101, 4102, 4103, 4104, 4105, 4106, 4107, 4108, 4109, 4110, 4111, 4112, 4113, 4114
 4115, 4116, 4117, 4118, 4119, 4120, 4121, 4122, 4123, 4124, 4125, 4126, 4127, 4128, 4129, 4130
 4131, 4132, 4133, 4134, 4135, 4136, 4137, 4138, 4139, 4140, 4141, 4142, 4143, 4144, 4145, 4186
 4187, 4188, 4189, 4190, 4191, 4192, 4193, 4194, 4195, 4196, 4197, 4198, 4199, 4200, 4201, 4202
 4203, 4204, 4205, 4206, 4207, 4208, 4209, 4210, 4211, 4212, 4213, 4214, 4215, 4216, 4217, 4218
 4219, 4220, 4221, 4222, 4223, 4224, 4225, 4226, 4227, 4228, 4229, 4230, 4231, 4232, 4233, 4234
 4235, 4236, 4237, 4238, 4239, 4240, 4241, 4242, 4243, 4244, 4245, 4246, 4247, 4248, 4249, 4250
 4251, 4252, 4253, 4254, 4255, 4256, 4257, 4258, 4259, 4260, 4261, 4262, 4263, 4264, 4265
*Elset, elset=P4
 1525, 1526, 1527, 1528, 1529, 1530, 1531, 1532, 1533, 1534, 1535, 1536, 1537, 1538, 1539, 1540
 1541, 1542, 1543, 1544, 1545, 1546, 1547, 1548, 1549, 1550, 1551, 1552, 1553, 1554, 1555, 1556
 1557, 1558, 1559, 1560, 1561, 1562, 1563, 1564, 1565, 1566, 1567, 1568, 1569, 1570, 1571, 1572
 1573, 1574, 1575, 1576, 1577, 1578, 1579, 1580, 1581, 1582, 1583, 1584, 1585, 1586, 1587, 1588
 1589, 1590, 1591, 1592, 1593, 1594, 1595, 1596, 1597, 1598, 1599, 1600, 1601, 1602, 1603, 1604
 1605, 1606, 3821, 3822, 3823, 3824, 3825, 3826, 3827, 3828, 3829, 3830, 3831, 3832, 3833, 3834
 3835, 3836, 3837, 3838, 3839, 3840, 3841, 3842, 3843, 3844, 3845, 3846, 3847, 3848, 3849, 3850
 3851, 3852, 3853, 3854, 3855, 3856, 3857, 3858, 3859, 3860, 3861, 3862, 3863, 3864, 3865, 3866
 3867, 3868, 3869, 3870, 3871, 3872, 3873, 3874, 3875, 3876, 3877, 3878, 3879, 3880, 3881, 3882
 3883, 3884, 3885, 3886, 3887, 3888, 3889, 3890, 3891, 3892, 3893, 3894, 3895, 3896, 3897, 3898
 3899, 3900, 3901, 3902, 3945, 3946, 3947, 3948, 3949, 3950, 3951, 3952, 3953, 3954, 3955, 3956
 3957, 3958, 3959, 3960, 3961, 3962, 3963, 3964, 3965, 3966, 3967, 3968, 3969, 3970, 3971, 3972
 3973, 3974, 3975, 3976, 3977, 3978, 3979, 3980, 3981, 3982, 3983, 3984, 3985, 3986, 3987, 3988
 3989, 3990, 3991, 3992, 3993, 3994, 3995, 3996, 3997, 3998, 3999, 4000, 4001, 4002, 4003, 4004
 4005, 4006, 4007, 4008, 4009, 4010, 4011, 4012, 4013, 4014, 4015, 4016, 4017, 4018, 4019, 4020
 4021, 4022, 4023, 4024, 4025, 4026, 4069, 4070, 4071, 4072, 4073, 4074, 4075, 4076, 4077, 4078
 4079, 4080, 4081, 4082, 4083, 4084, 4085, 4086, 4087, 4088, 4089, 4090, 4091, 4092, 4093, 4094
 4095, 4096, 4097, 4098, 4099, 4100, 4101, 4102, 4103, 4104, 4105, 4106, 4107, 4108, 4109, 4110
 4111, 4112, 4113, 4114, 4115, 4116, 4117, 4118, 4119, 4120, 4121, 4122, 4123, 4124, 4125, 4126
 4127, 4128, 4129, 4130, 4131, 4132, 4133, 4134, 4135, 4136, 4137, 4138, 4139, 4140, 4141, 4142
 4143, 4144, 4145, 4146, 4147, 4148, 4149, 4150, 4193, 4194, 4195, 4196, 4197, 4198, 4199, 4200
 4201, 4202, 4203, 4204, 4205, 4206, 4207, 4208, 4209, 4210, 4211, 4212, 4213, 4214, 4215, 4216
 4217, 4218, 4219, 4220, 4221, 4222, 4223, 4224, 4225, 4226, 4227, 4228, 4229, 4230, 4231, 4232
 4233, 4234, 4235, 4236, 4237, 4238, 4239, 4240, 4241, 4242, 4243, 4244, 4245, 4246, 4247, 4248
 4249, 4250, 4251, 4252, 4253, 4254, 4255, 4256, 4257, 4258, 4259, 4260, 4261, 4262, 4263, 4264
 4265, 4266, 4267, 4268, 4269, 4270, 4271, 4272, 4273, 4274
*Nset, nset=P5
    1,    2,    4,    6,    7,    8,    9,   10,   11,   12,   13,   14,   15,   16,   17,   18
   19,   20,   21,   22,   23,   24,   25,   26,   27,   29,   30,   32,   36,   37,   39,   43
   44,   46,   50,   51,   53,   56,   57,   59,   63,   64,   65,   66,   67,   68,   69,   70
   71,   72,   73,   74,   75,   76,   77,   78,   79,   80,   81,   82,   83,   84,   85,   86
   87,   88,   89,   90,   91,   92,   93,   94,   95,   96,   97,   98,   99,  100,  101,  102
  105,  106,  107,  108,  109,  110,  111,  112,  113,  114,  115,  116,  117,  118,  119,  120
  121,  122,  123,  124,  141,  142,  143,  144,  145,  146,  147,  148,  149,  150,  151,  152
  153,  154,  155,  175,  176,  177,  178,  179,  180,  181,  182,  183,  184,  185,  186,  187
  188,  189,  190,  191,  192,  193,  194,  195,  196,  197,  198,  199,  200,  201,  202,  203
  204,  205,  206,  219,  220,  221,  222,  223,  224,  225,  226,  227,  228,  229,  230,  231
  232,  233,  234,  235,  236,  237,  238,  239,  240,  241,  242,  243,  244,  245,  246,  247
  248,  249,  250,  251,  252,  253,  254,  255,  256,  257,  258,  259,  260,  261,  262,  263
  264,  265,  266,  267,  268,  269,  270,  271,  272,  273,  274,  275,  276,  277,  278,  279
  280,  281,  282,  283,  284,  285,  286,  287,  288,  289,  290,  291,  292,  293,  294,  295
  296,  297,  298,  299,  300,  301,  302,  303,  304,  305,  306,  307,  308,  309,  310,  311
  312,  313,  314,  315,  316,  317,  318,  319,  320,  321,  322,  323,  324,  325,  326,  327
  328,  329,  330,  331,  332,  333,  334,  335,  336,  337,  338,  339,  340,  341,  342,  343
  344,  345,  346,  347,  348,  349,  350,  351,  352,  353,  354,  355,  356,  357,  358,  359
  360,  361,  362,  363,  364,  365,  366,  367,  368,  369,  370,  371,  372,  373,  374,  375
  376,  377,  378,  379,  380,  381,  382,  383,  384,  385,  386,  387,  388,  389,  390,  391
  392,  393,  394,  395,  396,  397,  398,  399,  400,  401,  402,  403,  404,  405,  406,  407
  408,  409,  410,  411,  412,  413,  414,  415,  416,  417,  418,  419,  420,  421,  422,  423
  424,  425,  426,  427,  428,  429,  430,  431,  432,  433,  434,  435,  436,  437,  438,  439
  440,  441,  442,  443,  444,  445,  446,  447,  448,  449,  450,  451,  452,  453,  454,  455
  456,  457,  458,  459,  460,  461,  462,  463,  464,  465,  466,  467,  468,  469,  470,  471
  472,  473,  474,  475,  476,  477,  478,  479,  480,  481,  482,  483,  484,  485,  486,  487
  488,  489,  490,  491,  492,  493,  494,  495,  496,  497,  498,  499,  500,  501,  502,  503
  504,  505,  506,  507,  508,  509,  510,  511,  512,  513,  514,  515,  516,  517,  518,  519
  520,  521,  522,  523,  524,  525,  526,  527,  528,  529,  530,  531,  532,  533,  534,  535
  536,  537,  538,  539,  540,  541,  542,  543,  544,  545,  546,  547,  548,  549,  550,  551
  552,  553,  554,  555,  556,  557,  558,  559,  560,  561,  562,  563,  564,  565,  566,  567
  568,  569,  570,  571,  572,  573,  574,  575,  576,  577,  578,  579,  580,  581,  582,  583
  584,  585,  586,  587,  588,  589,  590,  591,  592,  593,  594,  595,  596,  597,  598,  599
  600,  601,  602,  603,  604,  605,  606,  607,  608,  609,  610,  611,  612,  613,  614,  615
  616,  617,  618,  619,  620,  621,  622,  623,  624,  625,  626,  627,  628,  629,  630,  631
  632,  633,  634,  635,  636,  637,  638,  639,  640,  641,  642,  643,  644,  645,  646,  647
  648,  649,  650,  651,  652,  653,  654,  655,  656,  657,  658,  659,  660,  661,  662,  663
  664,  665,  666,  667,  668,  669,  670,  671,  672,  673,  674,  675,  676,  677,  678,  679
  680,  681,  682,  683,  684,  685,  686,  687,  688,  689,  690,  691,  692,  693,  694,  695
  696,  697,  698,  699,  700,  701,  702,  703,  704,  705,  706,  707,  708,  709,  710,  711
  712,  713,  714,  715,  716,  717,  718,  719,  720,  721,  722,  723,  724,  725,  726,  727
  728,  729,  730,  731,  732,  733,  734,  735,  736,  737,  738,  739,  740,  741,  742,  743
  744,  745,  746,  747,  748,  749,  750,  751,  752,  753,  754,  755,  756,  757,  758,  759
  760,  761,  762,  763,  764,  765,  766,  767,  768,  769,  770,  771,  772,  773,  774,  775
  776,  777,  778,  779,  780,  781,  782,  783,  784,  785,  786,  787,  788,  789,  790,  791
  792,  793,  794,  795,  796,  797,  798,  799,  800,  801,  802,  803,  804,  805,  806,  807
  808,  809,  810,  811,  812,  813,  814,  815,  816,  817,  818,  819,  820,  821,  822,  823
  824,  825,  826,  827,  828,  829,  830,  831,  832,  833,  834,  835,  836,  837,  838,  839
  840,  841,  842,  843,  844,  845,  846,  847,  848,  849,  850,  851,  852,  853,  854,  855
  856,  857,  858,  859,  860,  861,  862,  863,  864,  865,  866,  867,  868,  869,  870,  871
 1686, 1687, 1688, 1689, 1690, 1691, 1692, 1693, 1694, 1695, 1696, 1697, 1698, 1699, 1700, 1701
 1702, 1703, 1704, 1705, 1706, 1707, 1708, 1709, 1710, 1711, 1712, 1713, 1714, 1715, 1716, 1717
 1718, 1719, 1720, 1721, 1722, 1723, 1724, 1725, 1726, 1727, 1728, 1729, 1730, 1731, 1732, 1733
 1734, 1735, 1736, 1737, 1738, 1739, 1740, 1741, 1742, 1743, 1744, 1745, 1746, 1747, 1748, 1749
 1750, 1751, 1752, 1753, 1754, 1755, 1756, 1757, 1758, 1759, 1760, 1761, 1762, 1763, 1764, 1765
 1766, 1767, 1768, 1769, 1770, 1771, 1772, 1773, 1774, 1775, 1776, 1777, 1778, 1779, 1780, 1781
 1782, 1783, 1784, 1785, 1786, 1787, 1788, 1789, 1790, 1791, 1792, 1793, 1794, 1795, 1796, 1797
 1798, 1799, 1800, 1801, 1802, 1803, 1804, 1805, 1806, 1807, 1808, 1809, 1810, 1811, 1812, 1813
 1814, 1815, 1816, 1817, 1818, 1819, 1820, 1821, 1822, 1823, 1824, 1825, 1826, 1827, 1828, 1829
 1830, 1831, 1832, 1833, 1834, 1835, 1836, 1837, 1838, 1839, 1840, 1841, 1842, 1843, 1844, 1845
 1846, 1847, 1848, 1849, 1850, 1851, 1852, 1853, 1854, 1855, 1856, 1857, 1858, 1859, 1860, 1861
 1862, 1863, 1864, 1865, 1866, 1867, 1868, 1869, 1870, 1871, 1872, 1873, 1874, 1875, 1876, 1877
 1878, 1879, 1880, 1881, 1882, 1883, 1884, 1885, 1886, 1887, 1888, 1889, 1890, 1891, 1892, 1893
 1894, 1895, 1896, 1897, 1898, 1899, 1900, 1901, 1902, 1903, 1904, 1905, 1906, 1907, 1908, 1909
 1910, 1911, 1912, 1913, 1914, 1915, 1916, 1917, 1918, 1919, 1920, 1921, 1922, 1923, 1924, 1925
 1926, 1927, 1928, 1929, 1930, 1931, 1932, 1933, 1934, 1935, 1936, 1937, 1938, 1939, 1940, 1941
 1942, 1943, 1944, 1945, 1946, 1947, 1948, 1949, 1950, 1951, 1952, 1953, 1954, 1955, 1956, 1957
 1958, 1959, 1960, 1961, 1962, 1963, 1964, 1965, 1966, 1967, 1968, 1969, 1970, 1971, 1972, 1973
 1974, 1975, 1976, 1977, 1978, 1979, 1980, 1981, 1982, 1983, 1984, 1985, 1986, 1987, 1988, 1989
 1990, 1991, 1992, 1993, 1994, 1995, 1996, 1997, 1998, 1999, 2000, 2001, 2002, 2003, 2004, 2005
 2006, 2007, 2008, 2009, 2010, 2011, 2012, 2013, 2014, 2015, 2016, 2017, 2018, 2019, 2020, 2021
 2022, 2023, 2024, 2025, 2026, 2027, 2028, 2029, 2030, 2031, 2032, 2033, 2034, 2035, 2036, 2037
 2038, 2039, 2040, 2041, 2042, 2043, 2044, 2045, 2046, 2047, 2048, 2049, 2050, 2051, 2052, 2053
 2054, 2055, 2056, 2057, 2058, 2059, 2060, 2061, 2062, 2063, 2064, 2065, 2066, 2067, 2068, 2069
 2070, 2071, 2072, 2073, 2074, 2075, 2076, 2077, 2078, 2079, 2080, 2081, 2082, 2083, 2084, 2085
 2086, 2087, 2088, 2089, 2090, 2091, 2092, 2093, 2094, 2095, 2096, 2097, 2098, 2099, 2100, 2101
 2102, 2103, 2104, 2105, 2106, 2107, 2108, 2109, 2110, 2111, 2112, 2113, 2114, 2115, 2116, 2117
 2118, 2119, 2120, 2121, 2122, 2123, 2124, 2125, 2126, 2127, 2128, 2129, 2130, 2131, 2132, 2133
 2134, 2135, 2136, 2137, 2138, 2139, 2140, 2141, 2142, 2143, 2144, 2145, 2146, 2147, 2148, 2149
 2150, 2151, 2152, 2153, 2154, 2155, 2156, 2157, 2158, 2159, 2160, 2161, 2162, 2163, 2164, 2165
 2166, 2167, 2168, 2169, 2170, 2171, 2172, 2173, 2174, 2175, 2176, 2177, 2178, 2179, 2180, 2181
 2182, 2183, 2184, 2185, 2186, 2187, 2188, 2189, 2190, 2191, 2192, 2193, 2194, 2195, 2196, 2197
 2198, 2199, 2200, 2201, 2202, 2203, 2204, 2205, 2206, 2207, 2208, 2209, 2210, 2211, 2212, 2213
 2214, 2215, 2216, 2217, 2218, 2219, 2220, 2221, 2222, 2223, 2224, 2225, 2226, 2227, 2228, 2229
 2230, 2231, 2232, 2233, 2234, 2235, 2236, 2237, 2238, 2239, 2240, 2241, 2242, 2243, 2244, 2245
 2246, 2247, 2248, 2249, 2250, 2251, 2252, 2253, 2254, 2255, 2256, 2257, 2258, 2259, 2260, 2261
 2262, 2263, 2264, 2265, 2266, 2267, 2268, 2269, 2270, 2271, 2272, 2273, 2274, 2275, 2276, 2277
 2278, 2279, 2280, 2281, 2282, 2283, 2284, 2285, 2286, 2287, 2288, 2289, 2290, 2291, 2292, 2293
 2294, 2295, 2296, 2297, 2298, 2299, 2300, 2301, 2302, 2303, 2304, 2305, 2306, 2307, 2308, 2309
 2310, 2311, 2312, 2313, 2314, 2315, 2316, 2317, 2318, 2319, 2320, 2321, 2322, 2323, 2324, 2325
 2326, 2327, 2328, 2329, 2330, 2331, 2332, 2333, 2334, 2335, 2336, 2337, 2338, 2339, 2340, 2341
 2342, 2343, 2344, 2345, 2346, 2347, 2348, 2349, 2350, 2351, 2352, 2353, 2354, 2355, 2356, 2357
 2358, 2359, 2360, 2361, 2362, 2363, 2364, 2365, 2366, 2367, 2368, 2369, 2370, 2371, 2372, 2373
 2374, 2375, 2376, 2377, 2378, 2379, 2380, 2381, 2382, 2383, 2384, 2385, 2386, 2387, 2388, 2389
 2390, 2391, 2392, 2393, 2394, 2395, 2396, 2397, 2398, 2399, 2400, 2401, 2402, 2403, 2404, 2405
 2406, 2407, 2408, 2409, 2410, 2411, 2412, 2413, 2414, 2415, 2416, 2417, 2418, 2419, 2420, 2421
 2422, 2423, 2424, 2425, 2426, 2427, 2428, 2429, 2430, 2431, 2432, 2433, 2434, 2435, 2436, 2437
 2438, 2439, 2440, 2441, 2442, 2443, 2444, 2445, 2446, 2447, 2448, 2449, 2450, 2451, 2452, 2453
 2454, 2455, 2456, 2457, 2458, 2459, 2460, 2461, 2462, 2463, 2464, 2465, 2466, 2467, 2468, 2469
 2470, 2471, 2472, 2473, 2474, 2475, 2476, 2477, 2478, 2479, 2480, 2481, 2482, 2483, 2484, 2485
 2486, 2487, 2488, 2489, 2490, 2491, 2492, 2493, 2494, 2495, 2496, 2497, 2498, 2499, 2500, 2501
 2502, 2503, 2504, 2505, 2506, 2507, 2508, 2509, 2510, 2511, 2512, 2513, 2514, 2515, 2516, 2517
 2518, 2519, 2520, 2521, 2522, 2523, 2524, 2525, 2526, 2527, 2528, 2529, 2530, 2531, 2532, 2533
 2534, 2535, 2536, 2537, 2538, 2539, 2540, 2541, 2542, 2543, 2544, 2545, 2546, 2547, 2548, 2549
 2550, 2551, 2552, 2553, 2554, 2555, 2556, 2557, 2558, 2559, 2560, 2561, 2562, 2563, 2564, 2565
 2566, 2567, 2568, 2569, 2570, 2571, 2572, 2573, 2574, 2575, 2576, 2577, 2578, 2579, 2580, 2581
 2582, 2583, 2584, 2585, 2586, 2587, 2588, 2589, 2590, 2591, 2592, 2593, 2594, 2595, 2596, 2597
 2598, 2599, 2600, 2601, 2602, 2603, 2604, 2605, 2606, 2607, 2608, 2609, 2610, 2611, 2612, 2613
 2614, 2615, 2616, 2617, 2618, 2619, 2620, 2621, 2622, 2623, 2624, 2625, 2626, 2627, 2628, 2629
 2630, 2631, 2632, 2633, 2634, 2635, 2636, 2637, 2638, 2639, 2640, 2641, 2642, 2643, 2644, 2645
 2646, 2647, 2648, 2649, 2650, 2651, 2652, 2653, 2654, 2655, 2656, 2657, 2658, 2659, 2660, 2661
 2662, 2663, 2664, 2665, 2666, 2667, 2668, 2669, 2670, 2671, 2672, 2673, 2674, 2675, 2676, 2677
 2678, 2679, 2680, 2681, 2682, 2683, 2684, 2685, 2686, 2687, 2688, 2689, 2690, 2691, 2692, 2693
 2694, 2695, 2696, 2697, 2698, 2699, 2700, 2701, 2702, 2703, 2704, 2705, 2706, 2707, 2708, 2709
 2710, 2711, 2712, 2713, 2714, 2715, 2716, 2717, 2718, 2719, 2720, 2721, 2722, 2723, 2724, 2725
 2726, 2727, 2728, 2729, 2730, 2731, 2732, 2733, 2734, 2735, 2736, 2737, 2738, 2739, 2740, 2741
 2742, 2743, 2744, 2745, 2746, 2747, 2748, 2749, 2750, 2751, 2752, 2753, 2754, 2755, 2756, 2757
 2758, 2759, 2760, 2761, 2762, 2763, 2764, 2765, 2766, 2767, 2768, 2769, 2770, 2771, 2772, 2773
 2774, 2775, 2776, 2777, 2778, 2779, 2780, 2781, 2782, 2783, 2784, 2785, 2786, 2787, 2788, 2789
 2790, 2791, 2792, 2793, 2794, 2795, 2796, 2797, 2798, 2799, 2800, 2801, 2802, 2803, 2804, 2805
 2806, 2807, 2808, 2809, 2810, 2811, 2812, 2813, 2814, 2815, 2816, 2817, 2818, 2819, 2820, 2821
 2822, 2823, 2824, 2825, 2826, 2827, 2828, 2829, 2830, 2831, 2832, 2833, 2834, 2835, 2836, 2837
 2838, 2839, 2840, 2841, 2842, 2843, 2844, 2845, 2846, 2847, 2848, 2849, 2850, 2851, 2852, 2853
 2854, 2855, 2856, 2857, 2858, 2859, 2860, 2861, 2862, 2863, 2864, 2865, 2866, 2867, 2868, 2869
 2870, 2871, 2872, 2873, 2874, 2875, 2876, 2877, 2878, 2879, 2880, 2881, 2882, 2883, 2884, 2885
 2886, 2887, 2888, 2889, 2890, 2891, 2892, 2893, 2894, 2895, 2896, 2897, 2898, 2899, 2900, 2901
 2902, 2903, 2904, 2905, 2906, 2907, 2908, 2909, 2910, 2911, 2912, 2913, 2914, 2915, 2916, 2917
 2918, 2919, 2920, 2921, 2922, 2923, 2924, 2925, 2926, 2927, 2928, 2929, 2930, 2931, 2932, 2933
 2934, 2935, 2936, 2937, 2938, 2939, 2940, 2941, 2942, 2943, 2944, 2945, 2946, 2947, 2948, 2949
 2950, 2951, 2952, 2953, 2954, 2955, 2956, 2957, 2958, 2959, 2960, 2961, 2962, 2963, 2964, 2965
 2966, 2967, 2968, 2969, 2970, 2971, 2972, 2973, 2974, 2975, 2976, 2977, 2978, 2979, 2980, 2981
 2982, 2983, 2984, 2985, 2986, 2987, 2988, 2989, 2990, 2991, 2992, 2993, 2994, 2995, 2996, 2997
 2998, 2999, 3000, 3001, 3002, 3003, 3004, 3005, 3006, 3007, 3008, 3009, 3010, 3011, 3012, 3013
 3014, 3015, 3016, 3017, 3018, 3019, 3020, 3021, 3022, 3023, 3024, 3025, 3026, 3027, 3028, 3029
 3030, 3031, 3032, 3033, 3034, 3035, 3036, 3037, 3038, 3039, 3040, 3041, 3042, 3043, 3044, 3045
 3046, 3047, 3048, 3049, 3050, 3051, 3052, 3053, 3054, 3055, 3056, 3057, 3058, 3059, 3060, 3061
 3062, 3063, 3064, 3065, 3066, 3067, 3068, 3069, 3070, 3071, 3072, 3073, 3074, 3075, 3076, 3077
 3078, 3079, 3080, 3081, 3082, 3083, 3084, 3085, 3126, 3127, 3128, 3129, 3130, 3131, 3132, 3133
 3134, 3135, 3136, 3137, 3138, 3139, 3140, 3141, 3142, 3143, 3144, 3145, 3146, 3147, 3148, 3149
 3150, 3151, 3152, 3153, 3154, 3155, 3156, 3157, 3158, 3159, 3160, 3161, 3162, 3163, 3164, 3165
 3166, 3167, 3168, 3169, 3170, 3171, 3172, 3173, 3174, 3175, 3176, 3177, 3178, 3179, 3180, 3181
 3182, 3183, 3184, 3185, 3186, 3187, 3188, 3189, 3190, 3191, 3192, 3193, 3194, 3195, 3196, 3197
 3198, 3199, 3200, 3201, 3202, 3203, 3204, 3205, 3206, 3207, 3208, 3209, 3210, 3211, 3212, 3213
 3214, 3215, 3216, 3217, 3218, 3219, 3220, 3221, 3222, 3223, 3224, 3225, 3226, 3227, 3228, 3229
 3230, 3231, 3232, 3233, 3234, 3235, 3236, 3237, 3238, 3239, 3240, 3241, 3242, 3243, 3244, 3245
 3246, 3247, 3248, 3249, 3250, 3251, 3252, 3253, 3254, 3255, 3256, 3257, 3258, 3259, 3260, 3261
 3262, 3263, 3264, 3265, 3266, 3267, 3268, 3269, 3270, 3271, 3272, 3273, 3274, 3275, 3276, 3277
 3278, 3279, 3280, 3281, 3282, 3283, 3284, 3285, 3286, 3287, 3288, 3289, 3290, 3291, 3292, 3293
 3294, 3295, 3296, 3297, 3298, 3299, 3300, 3301, 3302, 3303, 3304, 3305, 3306, 3307, 3308, 3309
 3310, 3311, 3312, 3313, 3314, 3315, 3316, 3317, 3318, 3319, 3320, 3321, 3322, 3323, 3324, 3325
 3326, 3327, 3328, 3329, 3330, 3331, 3332, 3333, 3334, 3335, 3336, 3337, 3338, 3339, 3340, 3341
 3342, 3343, 3344, 3345, 3346, 3347, 3348, 3349, 3350, 3351, 3352, 3353, 3354, 3355, 3356, 3357
 3358, 3359, 3360, 3361, 3362, 3363, 3364, 3365, 3366, 3367, 3368, 3369, 3370, 3371, 3372, 3373
 3374, 3375, 3376, 3377, 3378, 3379, 3380, 3381, 3382, 3383, 3384, 3385, 3386, 3387, 3388, 3389
 3390, 3391, 3392, 3393, 3394, 3395, 3396, 3397, 3398, 3399, 3400, 3401, 3402, 3403, 3404, 3405
 3406, 3407, 3408, 3409, 3410, 3411, 3412, 3413, 3414, 3415, 3416, 3417, 3418, 3419, 3420, 3421
 3422, 3423, 3424, 3425, 3426, 3427, 3428, 3429, 3430, 3431, 3432, 3433, 3434, 3435, 3436, 3437
 3438, 3439, 3440, 3441, 3442, 3443, 3444, 3445, 3446, 3447, 3448, 3449, 3450, 3451, 3452, 3453
 3454, 3455, 3456, 3457, 3458, 3459, 3460, 3461, 3462, 3463, 3464, 3465, 3466, 3467, 3468, 3469
 3470, 3471, 3472, 3473, 3474, 3475, 3476, 3477, 3478, 3479, 3480, 3481, 3482, 3483, 3484, 3485
 3486, 3487, 3488, 3489, 3490, 3491, 3492, 3493, 3494, 3495, 3496, 3497, 3498, 3499, 3500, 3501
 3502, 3503, 3504, 3505, 3506, 3507, 3508, 3509, 3510, 3511, 3512, 3513, 3514, 3515, 3516, 3517
 3518, 3519, 3520, 3521, 3522, 3523, 3524, 3525, 3526, 3527, 3528, 3529, 3530, 3531, 3532, 3533
 3534, 3535, 3536, 3537, 3538, 3539, 3540, 3541, 3542, 3543, 3544, 3545, 3546, 3547, 3548, 3549
 3550, 3551, 3552, 3553, 3554, 3555, 3556, 3557, 3558, 3559, 3560, 3561, 3562, 3563, 3564, 3565
 3566, 3567, 3568, 3569, 3570, 3571, 3572, 3573, 3574, 3575, 3576, 3577, 3578, 3579, 3580, 3581
 3582, 3583, 3584, 3585, 3586, 3587, 3588, 3589, 3590, 3591, 3592, 3593, 3594, 3595, 3596, 3597
 3598, 3599, 3600, 3601, 3602, 3603, 3604, 3605, 3606, 3607, 3608, 3609, 3610, 3611, 3612, 3613
 3614, 3615, 3616, 3617, 3618, 3619, 3620, 3621, 3622, 3623, 3624, 3625, 3626, 3627, 3628, 3629
 3630, 3631, 3632, 3633, 3634, 3635, 3636, 3637, 3638, 3639, 3640, 3641, 3642, 3643, 3644, 3645
 3646, 3647, 3648, 3649, 3650, 3651, 3652, 3653, 3654, 3655, 3656, 3657, 3658, 3659, 3660, 3661
 3662, 3663, 3664, 3665, 3666, 3667, 3668, 3669, 3670, 3671, 3672, 3673, 3674, 3675, 3676, 3677
 3678, 3679, 3680, 3681, 3682, 3683, 3684, 3685, 3686, 3687, 3688, 3689, 3690, 3691, 3692, 3693
 3694, 3695, 3696, 3697, 3698, 3699, 3700, 3701, 3702, 3703, 3704, 3705, 3706, 3707, 3708, 3709
 3710, 3711, 3712, 3713, 3714, 3715, 3716, 3717, 3718, 3719, 3720, 3721, 3722, 3723, 3724, 3725
 3726, 3727, 3728, 3729, 3730, 3731, 3732, 3733, 3734, 3735, 3736, 3737, 3738, 3739, 3740, 3741
 3742, 3743, 3744, 3745, 3746, 3747, 3748, 3749, 3750, 3751, 3752, 3753, 3754, 3755, 3756, 3757
 3758, 3759, 3760, 3761, 3762, 3763, 3764, 3765, 3766, 3767, 3768, 3769, 3770, 3771, 3772, 3773
 3774, 3775, 3776, 3777, 3778, 3779, 3780, 3781, 3782, 3783, 3784, 3785, 3786, 3787, 3788, 3789
 3790, 3791, 3792, 3793, 3794, 3795, 3796, 3797, 3798, 3799, 3800, 3801, 3802, 3803, 3804, 3805
 3806, 3807, 3808, 3809, 3810, 3811, 3812, 3813, 3814, 3815, 3816, 3817, 3818, 3819, 3820, 3821
 3822, 3823, 3824, 3825
*Elset, elset=P5
    1,    2,    3,    4,    5,    6,    7,    8,    9,   10,   11,   12,   13,   14,   15,   16
   37,   38,   39,   40,   41,   42,   43,   44,   45,   46,   47,   48,   49,   50,   51,   52
   53,   54,   55,   56,   57,   58,   59,   60,   61,   62,   63,   64,   65,   66,   67,   68
   69,   83,   84,   85,   86,   87,   88,   89,   90,   91,   92,   93,   94,   95,   96,   97
   98,   99,  100,  101,  102,  103,  104,  105,  106,  107,  108,  109,  110,  111,  112,  113
  114,  115,  116,  117,  118,  119,  120,  121,  122,  123,  124,  125,  126,  127,  128,  129
  130,  131,  132,  133,  134,  135,  136,  137,  138,  139,  140,  141,  142,  143,  144,  145
  146,  147,  148,  149,  150,  151,  152,  153,  154,  155,  156,  157,  158,  159,  160,  161
  162,  163,  164,  165,  166,  167,  168,  169,  170,  171,  172,  173,  174,  175,  176,  177
  178,  179,  180,  181,  182,  183,  184,  185,  186,  187,  188,  189,  190,  191,  192,  193
  194,  195,  196,  197,  198,  199,  200,  201,  202,  203,  204,  205,  206,  207,  208,  209
  210,  211,  212,  213,  214,  215,  216,  217,  218,  219,  220,  221,  222,  223,  224,  225
  226,  227,  228,  229,  230,  231,  232,  233,  234,  235,  236,  237,  238,  239,  240,  241
  242,  243,  244,  245,  246,  247,  248,  249,  250,  251,  252,  253,  254,  255,  256,  257
  258,  259,  260,  261,  262,  263,  264,  265,  266,  267,  268,  269,  270,  271,  272,  273
  274,  275,  276,  277,  278,  279,  280,  281,  282,  283,  284,  285,  286,  287,  288,  289
  290,  291,  292,  293,  294,  295,  296,  297,  298,  299,  300,  301,  302,  303,  304,  305
  306,  307,  308,  309,  310,  311,  312,  313,  314,  315,  316,  317,  318,  319,  320,  321
  322,  323,  324,  325,  326,  327,  328,  329,  330,  331,  332,  333,  334,  335,  336,  337
  338,  339,  340,  341,  342,  343,  344,  345,  346,  347,  348,  349,  350,  351,  352,  353
  354,  355,  356,  357,  358,  359,  360,  361,  362,  363,  364,  365,  366,  367,  368,  369
  370,  371,  372,  373,  374,  375,  376,  377,  378,  379,  380,  381,  382,  383,  384,  385
  386,  387,  388,  389,  390,  391,  392,  393,  394,  395,  396,  397,  398,  399,  400,  401
  402,  403,  404,  405,  406,  407,  408,  409,  410,  411,  412,  413,  414,  415,  416,  417
  418,  419,  420,  421,  422,  423,  424,  425,  426,  427,  428,  429,  430,  431,  432,  433
  434,  435,  436,  437,  438,  439,  440,  441,  442,  443,  444,  445,  446,  447,  448,  449
  450,  451,  452,  453,  454,  455,  456,  457,  458,  459,  460,  461,  462,  463,  464,  465
  466,  467,  468,  469,  470,  471,  472,  473,  474,  475,  476,  477,  478,  479,  480,  481
  482,  483,  484,  485,  486,  487,  488,  489,  490,  491,  492,  493,  494,  495,  496,  497
  498,  499,  500,  501,  502,  503,  504,  505,  506,  507,  508,  509,  510,  511,  512,  513
  514,  515,  516,  517,  518,  519,  520,  521,  522,  523,  524,  525,  526,  527,  528,  529
  530,  531,  532,  533,  534,  535,  536,  537,  538,  539,  540,  541,  542,  543,  544,  545
  546,  547,  548,  549,  550,  551,  552,  553,  554,  555,  556,  557,  558,  559,  560,  561
  562,  563,  564,  565,  566,  567,  568,  569,  570,  571,  572,  573,  574,  575,  576,  577
  578,  579,  580,  581,  582,  583,  584,  585,  586,  587,  588,  589,  590,  591,  592,  593
  594,  595,  596,  597,  598,  599,  600,  601,  602,  603,  604,  605,  606,  607,  608,  609
  610,  611,  612,  613,  614,  615,  616,  617,  618,  619,  620,  621,  622,  623,  624,  625
  626,  627,  628,  629,  630,  631,  632,  633,  634,  635,  636,  637,  638,  639,  640,  641
  642,  643,  644,  645,  646,  647,  648,  649,  650,  651,  652,  653,  654,  655,  656,  657
  658,  659,  660,  661,  662,  663,  664,  665,  666,  667,  668,  669,  670,  671,  672,  673
  674,  675,  676,  677,  678,  679,  680,  681,  682,  683,  684,  685,  686,  687,  688,  689
  690,  691,  692,  693,  694,  695,  696,  697,  698,  699,  700,  701,  702,  703,  704,  705
  706,  707,  708,  709,  710,  711,  712,  713,  714,  715,  716,  717,  718,  719,  720,  721
  722,  723,  724,  725,  726,  727,  728,  729,  730,  731,  732,  733,  734,  735,  736,  737
  738,  739,  740,  741,  742,  743,  744,  745,  746,  747,  748,  749,  750,  751,  752,  753
  754,  755,  756,  757, 1607, 1608, 1609, 1610, 1611, 1612, 1613, 1614, 1615, 1616, 1617, 1618
 1619, 1620, 1621, 1622, 1623, 1624, 1625, 1626, 1627, 1628, 1629, 1630, 1631, 1632, 1633, 1634
 1635, 1636, 1637, 1638, 1639, 1640, 1641, 1642, 1643, 1644, 1645, 1646, 1647, 1648, 1649, 1650
 1651, 1652, 1653, 1654, 1655, 1656, 1657, 1658, 1659, 1660, 1661, 1662, 1663, 1664, 1665, 1666
 1667, 1668, 1669, 1670, 1671, 1672, 1673, 1674, 1675, 1676, 1677, 1678, 1679, 1680, 1681, 1682
 1683, 1684, 1685, 1686, 1687, 1688, 1689, 1690, 1691, 1692, 1693, 1694, 1695, 1696, 1697, 1698
 1699, 1700, 1701, 1702, 1703, 1704, 1705, 1706, 1707, 1708, 1709, 1710, 1711, 1712, 1713, 1714
 1715, 1716, 1717, 1718, 1719, 1720, 1721, 1722, 1723, 1724, 1725, 1726, 1727, 1728, 1729, 1730
 1731, 1732, 1733, 1734, 1735, 1736, 1737, 1738, 1739, 1740, 1741, 1742, 1743, 1744, 1745, 1746
 1747, 1748, 1749, 1750, 1751, 1752, 1753, 1754, 1755, 1756, 1757, 1758, 1759, 1760, 1761, 1762
 1763, 1764, 1765, 1766, 1767, 1768, 1769, 1770, 1771, 1772, 1773, 1774, 1775, 1776, 1777, 1778
 1779, 1780, 1781, 1782, 1783, 1784, 1785, 1786, 1787, 1788, 1789, 1790, 1791, 1792, 1793, 1794
 1795, 1796, 1797, 1798, 1799, 1800, 1801, 1802, 1803, 1804, 1805, 1806, 1807, 1808, 1809, 1810
 1811, 1812, 1813, 1814, 1815, 1816, 1817, 1818, 1819, 1820, 1821, 1822, 1823, 1824, 1825, 1826
 1827, 1828, 1829, 1830, 1831, 1832, 1833, 1834, 1835, 1836, 1837, 1838, 1839, 1840, 1841, 1842
 1843, 1844, 1845, 1846, 1847, 1848, 1849, 1850, 1851, 1852, 1853, 1854, 1855, 1856, 1857, 1858
 1859, 1860, 1861, 1862, 1863, 1864, 1865, 1866, 1867, 1868, 1869, 1870, 1871, 1872, 1873, 1874
 1875, 1876, 1877, 1878, 1879, 1880, 1881, 1882, 1883, 1884, 1885, 1886, 1887, 1888, 1889, 1890
 1891, 1892, 1893, 1894, 1895, 1896, 1897, 1898, 1899, 1900, 1901, 1902, 1903, 1904, 1905, 1906
 1907, 1908, 1909, 1910, 1911, 1912, 1913, 1914, 1915, 1916, 1917, 1918, 1919, 1920, 1921, 1922
 1923, 1924, 1925, 1926, 1927, 1928, 1929, 1930, 1931, 1932, 1933, 1934, 1935, 1936, 1937, 1938
 1939, 1940, 1941, 1942, 1943, 1944, 1945, 1946, 1947, 1948, 1949, 1950, 1951, 1952, 1953, 1954
 1955, 1956, 1957, 1958, 1959, 1960, 1961, 1962, 1963, 1964, 1965, 1966, 1967, 1968, 1969, 1970
 1971, 1972, 1973, 1974, 1975, 1976, 1977, 1978, 1979, 1980, 1981, 1982, 1983, 1984, 1985, 1986
 1987, 1988, 1989, 1990, 1991, 1992, 1993, 1994, 1995, 1996, 1997, 1998, 1999, 2000, 2001, 2002
 2003, 2004, 2005, 2006, 2007, 2008, 2009, 2010, 2011, 2012, 2013, 2014, 2015, 2016, 2017, 2018
 2019, 2020, 2021, 2022, 2023, 2024, 2025, 2026, 2027, 2028, 2029, 2030, 2031, 2032, 2033, 2034
 2035, 2036, 2037, 2038, 2039, 2040, 2041, 2042, 2043, 2044, 2045, 2046, 2047, 2048, 2049, 2050
 2051, 2052, 2053, 2054, 2055, 2056, 2057, 2058, 2059, 2060, 2061, 2062, 2063, 2064, 2065, 2066
 2067, 2068, 2069, 2070, 2071, 2072, 2073, 2074, 2075, 2076, 2077, 2078, 2079, 2080, 2081, 2082
 2083, 2084, 2085, 2086, 2087, 2088, 2089, 2090, 2091, 2092, 2093, 2094, 2095, 2096, 2097, 2098
 2099, 2100, 2101, 2102, 2103, 2104, 2105, 2106, 2107, 2108, 2109, 2110, 2111, 2112, 2113, 2114
 2115, 2116, 2117, 2118, 2119, 2120, 2121, 2122, 2123, 2124, 2125, 2126, 2127, 2128, 2129, 2130
 2131, 2132, 2133, 2134, 2135, 2136, 2137, 2138, 2139, 2140, 2141, 2142, 2143, 2144, 2145, 2146
 2147, 2148, 2149, 2150, 2151, 2152, 2153, 2154, 2155, 2156, 2157, 2158, 2159, 2160, 2161, 2162
 2163, 2164, 2165, 2166, 2167, 2168, 2169, 2170, 2171, 2172, 2173, 2174, 2175, 2176, 2177, 2178
 2179, 2180, 2181, 2182, 2183, 2184, 2185, 2186, 2187, 2188, 2189, 2190, 2191, 2192, 2193, 2194
 2195, 2196, 2197, 2198, 2199, 2200, 2201, 2202, 2203, 2204, 2205, 2206, 2207, 2208, 2209, 2210
 2211, 2212, 2213, 2214, 2215, 2216, 2217, 2218, 2219, 2220, 2221, 2222, 2223, 2224, 2225, 2226
 2227, 2228, 2229, 2230, 2231, 2232, 2233, 2234, 2235, 2236, 2237, 2238, 2239, 2240, 2241, 2242
 2243, 2244, 2245, 2246, 2247, 2248, 2249, 2250, 2251, 2252, 2253, 2254, 2255, 2256, 2257, 2258
 2259, 2260, 2261, 2262, 2263, 2264, 2265, 2266, 2267, 2268, 2269, 2270, 2271, 2272, 2273, 2274
 2275, 2276, 2277, 2278, 2279, 2280, 2281, 2282, 2283, 2284, 2285, 2286, 2287, 2288, 2289, 2290
 2291, 2292, 2293, 2294, 2295, 2296, 2297, 2298, 2299, 2300, 2301, 2302, 2303, 2304, 2305, 2306
 2307, 2308, 2309, 2310, 2311, 2312, 2313, 2314, 2315, 2316, 2317, 2318, 2319, 2320, 2321, 2322
 2323, 2324, 2325, 2326, 2327, 2328, 2329, 2330, 2331, 2332, 2333, 2334, 2335, 2336, 2337, 2338
 2339, 2340, 2341, 2342, 2343, 2344, 2345, 2346, 2347, 2348, 2349, 2350, 2351, 2352, 2353, 2354
 2355, 2356, 2357, 2358, 2359, 2360, 2361, 2362, 2363, 2364, 2365, 2366, 2367, 2368, 2369, 2370
 2371, 2372, 2373, 2374, 2375, 2376, 2377, 2378, 2379, 2380, 2381, 2382, 2383, 2384, 2385, 2386
 2387, 2388, 2389, 2390, 2391, 2392, 2393, 2394, 2395, 2396, 2397, 2398, 2399, 2400, 2401, 2402
 2403, 2404, 2405, 2406, 2407, 2408, 2409, 2410, 2411, 2412, 2413, 2414, 2415, 2416, 2417, 2418
 2419, 2420, 2421, 2422, 2423, 2424, 2425, 2426, 2427, 2428, 2429, 2430, 2431, 2432, 2433, 2434
 2435, 2436, 2437, 2438, 2439, 2440, 2441, 2442, 2443, 2444, 2445, 2446, 2447, 2448, 2449, 2450
 2451, 2452, 2453, 2454, 2455, 2456, 2457, 2458, 2459, 2460, 2461, 2462, 2463, 2464, 2465, 2466
 2467, 2468, 2469, 2470, 2471, 2472, 2473, 2474, 2475, 2476, 2477, 2478, 2479, 2480, 2481, 2482
 2483, 2484, 2485, 2486, 2487, 2488, 2489, 2490, 2491, 2492, 2493, 2494, 2495, 2496, 2497, 2498
 2499, 2500, 2501, 2502, 2503, 2504, 2505, 2506, 2507, 2508, 2509, 2510, 2511, 2512, 2513, 2514
 2515, 2516, 2517, 2518, 2519, 2520, 2521, 2522, 2523, 2524, 2525, 2526, 2527, 2528, 2529, 2530
 2531, 2532, 2533, 2534, 2535, 2536, 2537, 2538, 2539, 2540, 2541, 2542, 2543, 2544, 2545, 2546
 2547, 2548, 2549, 2550, 2551, 2552, 2553, 2554, 2555, 2556, 2557, 2558, 2559, 2560, 2561, 2562
 2563, 2564, 2565, 2566, 2567, 2568, 2569, 2570, 2571, 2572, 2573, 2574, 2575, 2576, 2577, 2578
 2579, 2580, 2581, 2582, 2583, 2584, 2585, 2586, 2587, 2588, 2589, 2590, 2591, 2592, 2593, 2594
 2595, 2596, 2597, 2598, 2599, 2600, 2601, 2602, 2603, 2604, 2605, 2606, 2607, 2608, 2609, 2610
 2611, 2612, 2613, 2614, 2615, 2616, 2617, 2618, 2619, 2620, 2621, 2622, 2623, 2624, 2625, 2626
 2627, 2628, 2629, 2630, 2631, 2632, 2633, 2634, 2635, 2636, 2637, 2638, 2639, 2640, 2641, 2642
 2643, 2644, 2645, 2646, 2647, 2648, 2649, 2650, 2651, 2652, 2653, 2654, 2655, 2656, 2657, 2658
 2659, 2660, 2661, 2662, 2663, 2664, 2665, 2666, 2667, 2668, 2669, 2670, 2671, 2672, 2673, 2674
 2675, 2676, 2677, 2678, 2679, 2680, 2681, 2682, 2683, 2684, 2685, 2686, 2687, 2688, 2689, 2690
 2691, 2692, 2693, 2694, 2695, 2696, 2697, 2698, 2699, 2700, 2701, 2702, 2703, 2704, 2705, 2706
 2707, 2708, 2709, 2710, 2711, 2712, 2713, 2714, 2715, 2716, 2717, 2718, 2719, 2720, 2721, 2722
 2723, 2724, 2725, 2726, 2727, 2728, 2729, 2730, 2731, 2732, 2733, 2734, 2735, 2736, 2737, 2738
 2739, 2740, 2741, 2742, 2743, 2744, 2745, 2746, 2747, 2748, 2749, 2750, 2751, 2752, 2753, 2754
 2755, 2756, 2757, 2758, 2759, 2760, 2761, 2762, 2763, 2764, 2765, 2766, 2767, 2768, 2769, 2770
 2771, 2772, 2773, 2774, 2775, 2776, 2777, 2778, 2779, 2780, 2781, 2782, 2783, 2784, 2785, 2786
 2787, 2788, 2789, 2790, 2791, 2792, 2793, 2794, 2795, 2796, 2797, 2798, 2799, 2800, 2801, 2802
 2803, 2804, 2805, 2806, 2807, 2808, 2809, 2810, 2811, 2812, 2813, 2814, 2815, 2816, 2817, 2818
 2819, 2820, 2821, 2822, 2823, 2824, 2825, 2826, 2827, 2828, 2829, 2830, 2831, 2832, 2833, 2834
 2835, 2836, 2837, 2838, 2839, 2840, 2841, 2842, 2843, 2844, 2845, 2846, 2847, 2848, 2849, 2850
 2851, 2852, 2853, 2854, 2855, 2856, 2857, 2858, 2859, 2860, 2861, 2862, 2863, 2864, 2865, 2866
 2867, 2868, 2869, 2870, 2871, 2872, 2873, 2874, 2875, 2876, 2877, 2878, 2879, 2880, 2881, 2882
 2883, 2884, 2885, 2886, 2887, 2888, 2889, 2890, 2891, 2892, 2893, 2894, 2895, 2896, 2897, 2898
 2899, 2900, 2901, 2902, 2903, 2904, 2905, 2906, 2907, 2908, 2909, 2910, 2911, 2912, 2913, 2914
 2915, 2916, 2917, 2918, 2919, 2920, 2921, 2922, 2923, 2924, 2925, 2926, 2927, 2928, 2929, 2930
 2931, 2932, 2933, 2934, 2935, 2936, 2937, 2938, 2939, 2940, 2941, 2942, 2943, 2944, 2945, 2946
 2947, 2948, 2949, 2950, 2951, 2952, 2953, 2954, 2955, 2956, 2957, 2958, 2959, 2960, 2961, 2962
 2963, 2964, 2965, 2966, 2967, 2968, 2969, 2970, 2971, 2972, 2973, 2974, 2975, 2976, 2977, 2978
 2979, 2980, 2981, 2982, 2983, 2984, 2985, 2986, 2987, 2988, 2989, 2990, 2991, 2992, 2993, 2994
 2995, 2996, 2997, 2998, 2999, 3000, 3001, 3002, 3003, 3004, 3005, 3006, 3007, 3008, 3009, 3010
 3011, 3012, 3013, 3014, 3015, 3016, 3017, 3018, 3019, 3020, 3021, 3022, 3023, 3024, 3025, 3026
 3027, 3028, 3029, 3030, 3031, 3032, 3033, 3034, 3035, 3036, 3037, 3038, 3039, 3040, 3041, 3042
 3043, 3044, 3045, 3046, 3047, 3048, 3049, 3050, 3051, 3052, 3053, 3054, 3097, 3098, 3099, 3100
 3101, 3102, 3103, 3104, 3105, 3106, 3107, 3108, 3109, 3110, 3111, 3112, 3113, 3114, 3115, 3116
 3117, 3118, 3119, 3120, 3121, 3122, 3123, 3124, 3125, 3126, 3127, 3128, 3129, 3130, 3131, 3132
 3133, 3134, 3135, 3136, 3137, 3138, 3139, 3140, 3141, 3142, 3143, 3144, 3145, 3146, 3147, 3148
 3149, 3150, 3151, 3152, 3153, 3154, 3155, 3156, 3157, 3158, 3159, 3160, 3161, 3162, 3163, 3164
 3165, 3166, 3167, 3168, 3169, 3170, 3171, 3172, 3173, 3174, 3175, 3176, 3177, 3178, 3179, 3180
 3181, 3182, 3183, 3184, 3185, 3186, 3187, 3188, 3189, 3190, 3191, 3192, 3193, 3194, 3195, 3196
 3197, 3198, 3199, 3200, 3201, 3202, 3203, 3204, 3205, 3206, 3207, 3208, 3209, 3210, 3211, 3212
 3213, 3214, 3215, 3216, 3217, 3218, 3219, 3220, 3221, 3222, 3223, 3224, 3225, 3226, 3227, 3228
 3229, 3230, 3231, 3232, 3233, 3234, 3235, 3236, 3237, 3238, 3239, 3240, 3241, 3242, 3243, 3244
 3245, 3246, 3247, 3248, 3249, 3250, 3251, 3252, 3253, 3254, 3255, 3256, 3257, 3258, 3259, 3260
 3261, 3262, 3263, 3264, 3265, 3266, 3267, 3268, 3269, 3270, 3271, 3272, 3273, 3274, 3275, 3276
 3277, 3278, 3279, 3280, 3281, 3282, 3283, 3284, 3285, 3286, 3287, 3288, 3289, 3290, 3291, 3292
 3293, 3294, 3295, 3296, 3297, 3298, 3299, 3300, 3301, 3302, 3303, 3304, 3305, 3306, 3307, 3308
 3309, 3310, 3311, 3312, 3313, 3314, 3315, 3316, 3317, 3318, 3319, 3320, 3321, 3322, 3323, 3324
 3325, 3326, 3327, 3328, 3329, 3330, 3331, 3332, 3333, 3334, 3335, 3336, 3337, 3338, 3339, 3340
 3341, 3342, 3343, 3344, 3345, 3346, 3347, 3348, 3349, 3350, 3351, 3352, 3353, 3354, 3355, 3356
 3357, 3358, 3359, 3360, 3361, 3362, 3363, 3364, 3365, 3366, 3367, 3368, 3369, 3370, 3371, 3372
 3373, 3374, 3375, 3376, 3377, 3378, 3379, 3380, 3381, 3382, 3383, 3384, 3385, 3386, 3387, 3388
 3389, 3390, 3391, 3392, 3393, 3394, 3395, 3396, 3397, 3398, 3399, 3400, 3401, 3402, 3403, 3404
 3405, 3406, 3407, 3408, 3409, 3410, 3411, 3412, 3413, 3414, 3415, 3416, 3417, 3418, 3419, 3420
 3421, 3422, 3423, 3424, 3425, 3426, 3427, 3428, 3429, 3430, 3431, 3432, 3433, 3434, 3435, 3436
 3437, 3438, 3439, 3440, 3441, 3442, 3443, 3444, 3445, 3446, 3447, 3448, 3449, 3450, 3451, 3452
 3453, 3454, 3455, 3456, 3457, 3458, 3459, 3460, 3461, 3462, 3463, 3464, 3465, 3466, 3467, 3468
 3469, 3470, 3471, 3472, 3473, 3474, 3475, 3476, 3477, 3478, 3479, 3480, 3481, 3482, 3483, 3484
 3485, 3486, 3487, 3488, 3489, 3490, 3491, 3492, 3493, 3494, 3495, 3496, 3497, 3498, 3499, 3500
 3501, 3502, 3503, 3504, 3505, 3506, 3507, 3508, 3509, 3510, 3511, 3512, 3513, 3514, 3515, 3516
 3517, 3518, 3519, 3520, 3521, 3522, 3523, 3524, 3525, 3526, 3527, 3528, 3529, 3530, 3531, 3532
 3533, 3534, 3535, 3536, 3537, 3538, 3539, 3540, 3541, 3542, 3543, 3544, 3545, 3546, 3547, 3548
 3549, 3550, 3551, 3552, 3553, 3554, 3555, 3556, 3557, 3558, 3559, 3560, 3561, 3562, 3563, 3564
 3565, 3566, 3567, 3568, 3569, 3570, 3571, 3572, 3573, 3574, 3575, 3576, 3577, 3578, 3579, 3580
 3581, 3582, 3583, 3584, 3585, 3586, 3587, 3588, 3589, 3590, 3591, 3592, 3593, 3594, 3595, 3596
 3597, 3598, 3599, 3600, 3601, 3602, 3603, 3604, 3605, 3606, 3607, 3608, 3609, 3610, 3611, 3612
 3613, 3614, 3615, 3616, 3617, 3618, 3619, 3620, 3621, 3622, 3623, 3624, 3625, 3626, 3627, 3628
 3629, 3630, 3631, 3632, 3633, 3634, 3635, 3636, 3637, 3638, 3639, 3640, 3641, 3642, 3643, 3644
 3645, 3646, 3647, 3648, 3649, 3650, 3651, 3652, 3653, 3654, 3655, 3656, 3657, 3658, 3659, 3660
 3661, 3662, 3663, 3664, 3665, 3666, 3667, 3668, 3669, 3670, 3671, 3672, 3673, 3674, 3675, 3676
 3677, 3678, 3679, 3680, 3681, 3682, 3683, 3684, 3685, 3686, 3687, 3688, 3689, 3690, 3691, 3692
 3693, 3694, 3695, 3696, 3697, 3698, 3699, 3700, 3701, 3702, 3703, 3704, 3705, 3706, 3707, 3708
 3709, 3710, 3711, 3712, 3713, 3714, 3715, 3716, 3717, 3718, 3719, 3720, 3721, 3722, 3723, 3724
 3725, 3726, 3727, 3728, 3729, 3730, 3731, 3732, 3733, 3734, 3735, 3736, 3737, 3738, 3739, 3740
 3741, 3742, 3743, 3744, 3745, 3746, 3747, 3748, 3749, 3750, 3751, 3752, 3753, 3754, 3755, 3756
 3757, 3758, 3759, 3760, 3761, 3762, 3763, 3764, 3765, 3766, 3767, 3768, 3769, 3770, 3771, 3772
 3773, 3774, 3775, 3776, 3777, 3778, 3779, 3780, 3781, 3782, 3783, 3784, 3785, 3786, 3787, 3788
 3789, 3790, 3791, 3792, 3793, 3794, 3795, 3796, 3797, 3798, 3799, 3800, 3801, 3802, 3803, 3804
 3805, 3806, 3807, 3808, 3809, 3810, 3811, 3812, 3813, 3814, 3815, 3816, 3817, 3818, 3819, 3820
*Nset, nset=P6
   61,  103,  125,  127,  129,  131,  133,  135,  137,  139, 4306, 4307, 4308, 4309, 4310, 4311
 4312, 4313, 4314, 4315, 4316, 4317, 4318, 4319, 4320, 4321, 4322, 4323, 4324, 4325, 4326, 4327
 4328, 4329, 4330, 4331, 4332, 4333, 4334, 4335, 4336, 4337, 4338, 4339, 4340, 4341, 4342, 4343
 4344, 4345, 4346, 4347, 4348, 4349, 4350, 4351, 4352, 4353, 4354, 4355, 4356, 4357, 4358, 4359
 4360, 4361, 4362, 4363, 4364, 4365, 4366, 4367, 4368, 4369, 4370, 4371, 4372, 4373, 4374, 4375
 4376, 4377, 4378, 4379, 4380, 4381, 4382, 4383, 4384, 4385, 4386, 4387, 4388, 4389, 4390, 4391
 4392, 4393, 4394, 4395, 4396, 4397, 4398, 4399, 4400, 4401, 4402, 4403, 4404, 4405, 4406, 4407
 4408, 4409, 4410, 4411, 4412, 4413, 4414, 4415, 4416, 4417, 4418, 4419, 4420, 4421, 4422, 4423
 4424, 4425, 4426, 4427, 4428, 4429, 4430, 4431, 4432, 4433, 4434, 4435, 4436, 4437, 4438, 4439
 4440, 4441, 4442, 4443, 4444, 4445, 4446, 4447, 4448, 4449, 4450, 4451, 4452, 4453, 4454, 4455
 4456, 4457, 4458, 4459, 4460, 4461, 4462, 4463, 4464, 4465, 4466, 4467, 4468, 4469, 4470, 4471
 4472, 4473, 4474, 4475, 4476, 4477, 4478, 4479, 4480, 4481, 4482, 4483, 4484, 4485, 4486, 4487
 4488, 4489, 4490, 4491, 4492, 4493, 4494, 4495, 4496, 4497, 4498, 4499, 4500, 4501, 4502, 4503
 4504, 4505, 4506, 4507, 4508, 4509, 4510, 4511, 4512, 4513, 4514, 4515, 4516, 4517, 4518, 4519
 4520, 4521, 4522, 4523, 4524, 4525, 4526, 4527, 4528, 4529, 4530, 4531, 4532, 4533, 4534, 4535
 4536, 4537, 4538, 4539, 4540, 4541, 4542, 4543, 4544, 4545, 4546, 4547, 4548, 4549, 4550, 4551
 4552, 4553, 4554, 4555, 4556, 4557, 4558, 4559, 4560, 4561, 4562, 4563, 4564, 4565, 4566, 4567
 4568, 4569, 4570, 4571, 4572, 4573, 4574, 4575, 4576, 4577, 4578, 4579, 4580, 4581, 4582, 4583
 4584, 4585, 4586, 4587, 4588, 4589, 4590, 4591, 4592, 4593, 4594, 4595, 4596, 4597, 4598, 4599
 4600, 4601, 4602, 4603, 4604, 4605, 4606, 4607, 4608, 4609, 4610, 4611, 4612, 4613, 4614, 4615
 4616, 4617, 4618, 4619, 4620, 4621, 4622, 4623, 4624, 4625, 4626, 4627, 4628, 4629, 4630, 4631
 4632, 4633, 4634, 4635, 4636, 4637, 4638, 4639, 4640, 4641, 4642, 4643, 4644, 4645, 4646, 4647
 4648, 4649, 4650, 4651, 4652, 4653, 4654, 4655, 4656, 4657, 4658, 4659, 4660, 4661, 4662, 4663
 4664, 4665, 4666, 4667, 4668, 4669, 4670, 4671, 4672, 4673, 4674, 4675, 4676, 4677, 4678, 4679
 4680, 4681, 4682, 4683, 4684, 4685, 4686, 4687, 4688, 4689, 4690, 4691, 4692, 4693, 4694, 4695
 4696, 4697, 4698, 4699, 4700, 4701, 4702, 4703, 4704, 4705, 4706, 4707, 4708, 4709, 4710, 4711
 4712, 4713, 4714, 4715, 4716, 4717, 4718, 4719, 4720, 4721, 4722, 4723, 4724, 4725, 4726, 4727
 4728, 4729, 4730, 4731, 4732, 4733, 4734, 4735, 4736, 4737, 4738, 4739, 4740
*Elset, elset=P6, generate
 4317,  4756,     1
** Section: P5  Profile: C100
*Beam Section, elset=P5, material=S235JR, poisson = 0.3, temperature=GRADIENTS, section=ARBITRARY
5, 29.1607, 30., 29.1607, 48., 4.
-16.8393, 48., 4.
-16.8393, -48., 4.
29.1607, -48., 4.
29.1607, -30., 4.
0.,0.906351,0.422525
** Section: P2  Profile: C125
*Beam Section, elset=P2, material=S355JR, poisson = 0.3, temperature=GRADIENTS, section=ARBITRARY
5, 36.9745, 37.5, 36.9745, 60.5, 4.
-21.5255, 60.5, 4.
-21.5255, -60.5, 4.
36.9745, -60.5, 4.
36.9745, -37.5, 4.
1.,0.,0.
** Section: P4  Profile: C125
*Beam Section, elset=P4, material=S235JR, poisson = 0.3, temperature=GRADIENTS, section=ARBITRARY
5, 36.9745, 37.5, 36.9745, 60.5, 4.
-21.5255, 60.5, 4.
-21.5255, -60.5, 4.
36.9745, -60.5, 4.
36.9745, -37.5, 4.
1.,0.,0.
** Section: P3  Profile: C125
*Beam Section, elset=P3, material=S235JR, poisson = 0.3, temperature=GRADIENTS, section=ARBITRARY
5, 36.9745, 37.5, 36.9745, 60.5, 4.
-21.5255, 60.5, 4.
-21.5255, -60.5, 4.
36.9745, -60.5, 4.
36.9745, -37.5, 4.
1.,0.,0.
** Section: P6  Profile: C50
*Beam Section, elset=P6, material=S235JR, poisson = 0.3, temperature=GRADIENTS, section=ARBITRARY
3, 16.875, 22.5, -5.625, 22.5, 5.
-5.625, -22.5, 5.
16.875, -22.5, 5.
1.,0.,0.
*End Part
**  
**
** ASSEMBLY
**
*Assembly, name=Assembly
**  
*Instance, name=FRAME, part=SteelFrame
*End Instance
**  
*Nset, nset=BASES, instance=FRAME
  62, 104, 126, 128, 130, 132, 134, 136, 138, 140
*Nset, nset=CONTACT_ROW_1, instance=FRAME
  39,  53, 105, 106, 107, 108, 109, 110, 111, 112, 113, 114, 115, 116, 117, 118
 119, 120, 121, 122, 123, 124
*Nset, nset=CONTACT_ROW_2, instance=FRAME
  37,  51,  83,  84,  85,  86,  87,  88,  89,  90,  91,  92,  93,  94,  95,  96
  97,  98,  99, 100, 101, 102
*Nset, nset=CONTACT_ROW_3, instance=FRAME
 36, 50, 63, 64, 65, 66, 67, 68, 69, 70, 71, 72, 73, 74, 75, 76
 77, 78, 79, 80, 81, 82
*Nset, nset=CONTACT_ROW_4, instance=FRAME
  1,  4,  6,  7,  8,  9, 10, 11, 12, 13, 14, 16, 17, 18, 19, 20
 21, 22, 23, 24, 25, 26
*End Assembly
** 
** MATERIALS
** 
*Material, name=S235JR
*Density
 7.85e-09,
*Elastic
210000., 0.3
*Material, name=S355JR
*Density
 7.85e-09,
*Elastic
210000., 0.3
** 
** BOUNDARY CONDITIONS
** 
** Name: GroundFixity Type: Symmetry/Antisymmetry/Encastre
*Boundary
BASES, ENCASTRE
** ----------------------------------------------------------------
** 
** STEP: D
** 
*Step, name=D, nlgeom=NO
*Static
1., 1., 1e-05, 1.
** 
** LOADS
** 
** Name: D_Contact_1   Type: Concentrated force
*Cload, op=NEW
CONTACT_ROW_1, 2, 0.
CONTACT_ROW_1, 3, -126.993
** Name: D_Contact_2   Type: Concentrated force
*Cload, op=NEW
CONTACT_ROW_2, 2, 0.
CONTACT_ROW_2, 3, -126.993
** Name: D_Contact_3   Type: Concentrated force
*Cload, op=NEW
CONTACT_ROW_3, 2, 0.
CONTACT_ROW_3, 3, -126.993
** Name: D_Contact_4   Type: Concentrated force
*Cload, op=NEW
CONTACT_ROW_4, 2, 0.
CONTACT_ROW_4, 3, -126.993
** Name: D_SteelGravity   Type: Gravity
*Dload, op=NEW
, GRAV, 9810., 0., 0., -1.
** 
** OUTPUT REQUESTS
** 
*Restart, write, frequency=0
** 
** FIELD OUTPUT: Nodal
** 
*Output, field, frequency=99999
*Node Output
RF, RM, U
** 
** FIELD OUTPUT: Section_P2
** 
*Element Output, elset=FRAME.P2, directions=YES
1, 2, 3, 4, 5, 6, 7, 8, 9, 10, 11
S, SF
** 
** FIELD OUTPUT: Section_P3
** 
*Element Output, elset=FRAME.P3, directions=YES
1, 2, 3, 4, 5, 6, 7, 8, 9, 10, 11
S, SF
** 
** FIELD OUTPUT: Section_P4
** 
*Element Output, elset=FRAME.P4, directions=YES
1, 2, 3, 4, 5, 6, 7, 8, 9, 10, 11
S, SF
** 
** FIELD OUTPUT: Section_P5
** 
*Element Output, elset=FRAME.P5, directions=YES
1, 2, 3, 4, 5, 6, 7, 8, 9, 10, 11
S, SF
** 
** FIELD OUTPUT: Section_P6
** 
*Element Output, elset=FRAME.P6, directions=YES
1, 2, 3, 4, 5, 6, 7
S, SF
** 
** HISTORY OUTPUT: Energy
** 
*Output, history
*Energy Output
ALLSE, ALLWK
*End Step
** ----------------------------------------------------------------
** 
** STEP: S
** 
*Step, name=S, nlgeom=NO
*Static
1., 1., 1e-05, 1.
** 
** LOADS
** 
** Name: D_Contact_1   Type: Concentrated force
*Cload, op=NEW
** Name: D_Contact_2   Type: Concentrated force
*Cload, op=NEW
** Name: D_Contact_3   Type: Concentrated force
*Cload, op=NEW
** Name: D_Contact_4   Type: Concentrated force
*Cload, op=NEW
** Name: D_SteelGravity   Type: Gravity
*Dload, op=NEW
** Name: S_Contact_1   Type: Concentrated force
*Cload, op=NEW
CONTACT_ROW_1, 2, 0.
CONTACT_ROW_1, 3, -733.2
** Name: S_Contact_2   Type: Concentrated force
*Cload, op=NEW
CONTACT_ROW_2, 2, 0.
CONTACT_ROW_2, 3, -733.2
** Name: S_Contact_3   Type: Concentrated force
*Cload, op=NEW
CONTACT_ROW_3, 2, 0.
CONTACT_ROW_3, 3, -733.2
** Name: S_Contact_4   Type: Concentrated force
*Cload, op=NEW
CONTACT_ROW_4, 2, 0.
CONTACT_ROW_4, 3, -733.2
** 
** OUTPUT REQUESTS
** 
*Restart, write, frequency=0
** 
** FIELD OUTPUT: Nodal
** 
*Output, field, frequency=99999
*Node Output
RF, RM, U
** 
** FIELD OUTPUT: Section_P2
** 
*Element Output, elset=FRAME.P2, directions=YES
1, 2, 3, 4, 5, 6, 7, 8, 9, 10, 11
S, SF
** 
** FIELD OUTPUT: Section_P3
** 
*Element Output, elset=FRAME.P3, directions=YES
1, 2, 3, 4, 5, 6, 7, 8, 9, 10, 11
S, SF
** 
** FIELD OUTPUT: Section_P4
** 
*Element Output, elset=FRAME.P4, directions=YES
1, 2, 3, 4, 5, 6, 7, 8, 9, 10, 11
S, SF
** 
** FIELD OUTPUT: Section_P5
** 
*Element Output, elset=FRAME.P5, directions=YES
1, 2, 3, 4, 5, 6, 7, 8, 9, 10, 11
S, SF
** 
** FIELD OUTPUT: Section_P6
** 
*Element Output, elset=FRAME.P6, directions=YES
1, 2, 3, 4, 5, 6, 7
S, SF
** 
** HISTORY OUTPUT: Energy
** 
*Output, history
*Energy Output
ALLSE, ALLWK
*End Step
** ----------------------------------------------------------------
** 
** STEP: W
** 
*Step, name=W, nlgeom=NO
*Static
1., 1., 1e-05, 1.
** 
** LOADS
** 
** Name: S_Contact_1   Type: Concentrated force
*Cload, op=NEW
** Name: S_Contact_2   Type: Concentrated force
*Cload, op=NEW
** Name: S_Contact_3   Type: Concentrated force
*Cload, op=NEW
** Name: S_Contact_4   Type: Concentrated force
*Cload, op=NEW
** Name: W_Contact_1   Type: Concentrated force
*Cload, op=NEW
CONTACT_ROW_1, 2, 35.556
CONTACT_ROW_1, 3, -76.2707
** Name: W_Contact_2   Type: Concentrated force
*Cload, op=NEW
CONTACT_ROW_2, 2, 35.556
CONTACT_ROW_2, 3, -76.2707
** Name: W_Contact_3   Type: Concentrated force
*Cload, op=NEW
CONTACT_ROW_3, 2, 35.556
CONTACT_ROW_3, 3, -76.2707
** Name: W_Contact_4   Type: Concentrated force
*Cload, op=NEW
CONTACT_ROW_4, 2, 35.556
CONTACT_ROW_4, 3, -76.2707
** 
** OUTPUT REQUESTS
** 
*Restart, write, frequency=0
** 
** FIELD OUTPUT: Nodal
** 
*Output, field, frequency=99999
*Node Output
RF, RM, U
** 
** FIELD OUTPUT: Section_P2
** 
*Element Output, elset=FRAME.P2, directions=YES
1, 2, 3, 4, 5, 6, 7, 8, 9, 10, 11
S, SF
** 
** FIELD OUTPUT: Section_P3
** 
*Element Output, elset=FRAME.P3, directions=YES
1, 2, 3, 4, 5, 6, 7, 8, 9, 10, 11
S, SF
** 
** FIELD OUTPUT: Section_P4
** 
*Element Output, elset=FRAME.P4, directions=YES
1, 2, 3, 4, 5, 6, 7, 8, 9, 10, 11
S, SF
** 
** FIELD OUTPUT: Section_P5
** 
*Element Output, elset=FRAME.P5, directions=YES
1, 2, 3, 4, 5, 6, 7, 8, 9, 10, 11
S, SF
** 
** FIELD OUTPUT: Section_P6
** 
*Element Output, elset=FRAME.P6, directions=YES
1, 2, 3, 4, 5, 6, 7
S, SF
** 
** HISTORY OUTPUT: Energy
** 
*Output, history
*Energy Output
ALLSE, ALLWK
*End Step
** ----------------------------------------------------------------
** 
** STEP: D_07S
** 
*Step, name=D_07S, nlgeom=NO
*Static
1., 1., 1e-05, 1.
** 
** LOADS
** 
** Name: D_07S_Contact_1   Type: Concentrated force
*Cload, op=NEW
CONTACT_ROW_1, 2, 0.
CONTACT_ROW_1, 3, -640.233
** Name: D_07S_Contact_2   Type: Concentrated force
*Cload, op=NEW
CONTACT_ROW_2, 2, 0.
CONTACT_ROW_2, 3, -640.233
** Name: D_07S_Contact_3   Type: Concentrated force
*Cload, op=NEW
CONTACT_ROW_3, 2, 0.
CONTACT_ROW_3, 3, -640.233
** Name: D_07S_Contact_4   Type: Concentrated force
*Cload, op=NEW
CONTACT_ROW_4, 2, 0.
CONTACT_ROW_4, 3, -640.233
** Name: D_07S_SteelGravity   Type: Gravity
*Dload, op=NEW
, GRAV, 9810., 0., 0., -1.
** Name: W_Contact_1   Type: Concentrated force
*Cload, op=NEW
** Name: W_Contact_2   Type: Concentrated force
*Cload, op=NEW
** Name: W_Contact_3   Type: Concentrated force
*Cload, op=NEW
** Name: W_Contact_4   Type: Concentrated force
*Cload, op=NEW
** 
** OUTPUT REQUESTS
** 
*Restart, write, frequency=0
** 
** FIELD OUTPUT: Nodal
** 
*Output, field, frequency=99999
*Node Output
RF, RM, U
** 
** FIELD OUTPUT: Section_P2
** 
*Element Output, elset=FRAME.P2, directions=YES
1, 2, 3, 4, 5, 6, 7, 8, 9, 10, 11
S, SF
** 
** FIELD OUTPUT: Section_P3
** 
*Element Output, elset=FRAME.P3, directions=YES
1, 2, 3, 4, 5, 6, 7, 8, 9, 10, 11
S, SF
** 
** FIELD OUTPUT: Section_P4
** 
*Element Output, elset=FRAME.P4, directions=YES
1, 2, 3, 4, 5, 6, 7, 8, 9, 10, 11
S, SF
** 
** FIELD OUTPUT: Section_P5
** 
*Element Output, elset=FRAME.P5, directions=YES
1, 2, 3, 4, 5, 6, 7, 8, 9, 10, 11
S, SF
** 
** FIELD OUTPUT: Section_P6
** 
*Element Output, elset=FRAME.P6, directions=YES
1, 2, 3, 4, 5, 6, 7
S, SF
** 
** HISTORY OUTPUT: Energy
** 
*Output, history
*Energy Output
ALLSE, ALLWK
*End Step
** ----------------------------------------------------------------
** 
** STEP: D_S
** 
*Step, name=D_S, nlgeom=NO
*Static
1., 1., 1e-05, 1.
** 
** LOADS
** 
** Name: D_07S_Contact_1   Type: Concentrated force
*Cload, op=NEW
** Name: D_07S_Contact_2   Type: Concentrated force
*Cload, op=NEW
** Name: D_07S_Contact_3   Type: Concentrated force
*Cload, op=NEW
** Name: D_07S_Contact_4   Type: Concentrated force
*Cload, op=NEW
** Name: D_07S_SteelGravity   Type: Gravity
*Dload, op=NEW
** Name: D_S_Contact_1   Type: Concentrated force
*Cload, op=NEW
CONTACT_ROW_1, 2, 0.
CONTACT_ROW_1, 3, -860.193
** Name: D_S_Contact_2   Type: Concentrated force
*Cload, op=NEW
CONTACT_ROW_2, 2, 0.
CONTACT_ROW_2, 3, -860.193
** Name: D_S_Contact_3   Type: Concentrated force
*Cload, op=NEW
CONTACT_ROW_3, 2, 0.
CONTACT_ROW_3, 3, -860.193
** Name: D_S_Contact_4   Type: Concentrated force
*Cload, op=NEW
CONTACT_ROW_4, 2, 0.
CONTACT_ROW_4, 3, -860.193
** Name: D_S_SteelGravity   Type: Gravity
*Dload, op=NEW
, GRAV, 9810., 0., 0., -1.
** 
** OUTPUT REQUESTS
** 
*Restart, write, frequency=0
** 
** FIELD OUTPUT: Nodal
** 
*Output, field, frequency=99999
*Node Output
RF, RM, U
** 
** FIELD OUTPUT: Section_P2
** 
*Element Output, elset=FRAME.P2, directions=YES
1, 2, 3, 4, 5, 6, 7, 8, 9, 10, 11
S, SF
** 
** FIELD OUTPUT: Section_P3
** 
*Element Output, elset=FRAME.P3, directions=YES
1, 2, 3, 4, 5, 6, 7, 8, 9, 10, 11
S, SF
** 
** FIELD OUTPUT: Section_P4
** 
*Element Output, elset=FRAME.P4, directions=YES
1, 2, 3, 4, 5, 6, 7, 8, 9, 10, 11
S, SF
** 
** FIELD OUTPUT: Section_P5
** 
*Element Output, elset=FRAME.P5, directions=YES
1, 2, 3, 4, 5, 6, 7, 8, 9, 10, 11
S, SF
** 
** FIELD OUTPUT: Section_P6
** 
*Element Output, elset=FRAME.P6, directions=YES
1, 2, 3, 4, 5, 6, 7
S, SF
** 
** HISTORY OUTPUT: Energy
** 
*Output, history
*Energy Output
ALLSE, ALLWK
*End Step
** ----------------------------------------------------------------
** 
** STEP: D_S_W
** 
*Step, name=D_S_W, nlgeom=NO
*Static
1., 1., 1e-05, 1.
** 
** LOADS
** 
** Name: D_S_Contact_1   Type: Concentrated force
*Cload, op=NEW
** Name: D_S_Contact_2   Type: Concentrated force
*Cload, op=NEW
** Name: D_S_Contact_3   Type: Concentrated force
*Cload, op=NEW
** Name: D_S_Contact_4   Type: Concentrated force
*Cload, op=NEW
** Name: D_S_SteelGravity   Type: Gravity
*Dload, op=NEW
** Name: D_S_W_Contact_1   Type: Concentrated force
*Cload, op=NEW
CONTACT_ROW_1, 2, 35.556
CONTACT_ROW_1, 3, -936.463
** Name: D_S_W_Contact_2   Type: Concentrated force
*Cload, op=NEW
CONTACT_ROW_2, 2, 35.556
CONTACT_ROW_2, 3, -936.463
** Name: D_S_W_Contact_3   Type: Concentrated force
*Cload, op=NEW
CONTACT_ROW_3, 2, 35.556
CONTACT_ROW_3, 3, -936.463
** Name: D_S_W_Contact_4   Type: Concentrated force
*Cload, op=NEW
CONTACT_ROW_4, 2, 35.556
CONTACT_ROW_4, 3, -936.463
** Name: D_S_W_SteelGravity   Type: Gravity
*Dload, op=NEW
, GRAV, 9810., 0., 0., -1.
** 
** OUTPUT REQUESTS
** 
*Restart, write, frequency=0
** 
** FIELD OUTPUT: Nodal
** 
*Output, field, frequency=99999
*Node Output
RF, RM, U
** 
** FIELD OUTPUT: Section_P2
** 
*Element Output, elset=FRAME.P2, directions=YES
1, 2, 3, 4, 5, 6, 7, 8, 9, 10, 11
S, SF
** 
** FIELD OUTPUT: Section_P3
** 
*Element Output, elset=FRAME.P3, directions=YES
1, 2, 3, 4, 5, 6, 7, 8, 9, 10, 11
S, SF
** 
** FIELD OUTPUT: Section_P4
** 
*Element Output, elset=FRAME.P4, directions=YES
1, 2, 3, 4, 5, 6, 7, 8, 9, 10, 11
S, SF
** 
** FIELD OUTPUT: Section_P5
** 
*Element Output, elset=FRAME.P5, directions=YES
1, 2, 3, 4, 5, 6, 7, 8, 9, 10, 11
S, SF
** 
** FIELD OUTPUT: Section_P6
** 
*Element Output, elset=FRAME.P6, directions=YES
1, 2, 3, 4, 5, 6, 7
S, SF
** 
** HISTORY OUTPUT: Energy
** 
*Output, history
*Energy Output
ALLSE, ALLWK
*End Step
** ----------------------------------------------------------------
** 
** STEP: D_S_mW
** 
*Step, name=D_S_mW, nlgeom=NO
*Static
1., 1., 1e-05, 1.
** 
** LOADS
** 
** Name: D_S_W_Contact_1   Type: Concentrated force
*Cload, op=NEW
** Name: D_S_W_Contact_2   Type: Concentrated force
*Cload, op=NEW
** Name: D_S_W_Contact_3   Type: Concentrated force
*Cload, op=NEW
** Name: D_S_W_Contact_4   Type: Concentrated force
*Cload, op=NEW
** Name: D_S_W_SteelGravity   Type: Gravity
*Dload, op=NEW
** Name: D_S_mW_Contact_1   Type: Concentrated force
*Cload, op=NEW
CONTACT_ROW_1, 2, -35.556
CONTACT_ROW_1, 3, -783.922
** Name: D_S_mW_Contact_2   Type: Concentrated force
*Cload, op=NEW
CONTACT_ROW_2, 2, -35.556
CONTACT_ROW_2, 3, -783.922
** Name: D_S_mW_Contact_3   Type: Concentrated force
*Cload, op=NEW
CONTACT_ROW_3, 2, -35.556
CONTACT_ROW_3, 3, -783.922
** Name: D_S_mW_Contact_4   Type: Concentrated force
*Cload, op=NEW
CONTACT_ROW_4, 2, -35.556
CONTACT_ROW_4, 3, -783.922
** Name: D_S_mW_SteelGravity   Type: Gravity
*Dload, op=NEW
, GRAV, 9810., 0., 0., -1.
** 
** OUTPUT REQUESTS
** 
*Restart, write, frequency=0
** 
** FIELD OUTPUT: Nodal
** 
*Output, field, frequency=99999
*Node Output
RF, RM, U
** 
** FIELD OUTPUT: Section_P2
** 
*Element Output, elset=FRAME.P2, directions=YES
1, 2, 3, 4, 5, 6, 7, 8, 9, 10, 11
S, SF
** 
** FIELD OUTPUT: Section_P3
** 
*Element Output, elset=FRAME.P3, directions=YES
1, 2, 3, 4, 5, 6, 7, 8, 9, 10, 11
S, SF
** 
** FIELD OUTPUT: Section_P4
** 
*Element Output, elset=FRAME.P4, directions=YES
1, 2, 3, 4, 5, 6, 7, 8, 9, 10, 11
S, SF
** 
** FIELD OUTPUT: Section_P5
** 
*Element Output, elset=FRAME.P5, directions=YES
1, 2, 3, 4, 5, 6, 7, 8, 9, 10, 11
S, SF
** 
** FIELD OUTPUT: Section_P6
** 
*Element Output, elset=FRAME.P6, directions=YES
1, 2, 3, 4, 5, 6, 7
S, SF
** 
** HISTORY OUTPUT: Energy
** 
*Output, history
*Energy Output
ALLSE, ALLWK
*End Step
** ----------------------------------------------------------------
** 
** STEP: C09D_W
** 
*Step, name=C09D_W, nlgeom=NO
*Static
1., 1., 1e-05, 1.
** 
** LOADS
** 
** Name: C09D_W_Contact_1   Type: Concentrated force
*Cload, op=NEW
CONTACT_ROW_1, 2, 35.556
CONTACT_ROW_1, 3, -190.564
** Name: C09D_W_Contact_2   Type: Concentrated force
*Cload, op=NEW
CONTACT_ROW_2, 2, 35.556
CONTACT_ROW_2, 3, -190.564
** Name: C09D_W_Contact_3   Type: Concentrated force
*Cload, op=NEW
CONTACT_ROW_3, 2, 35.556
CONTACT_ROW_3, 3, -190.564
** Name: C09D_W_Contact_4   Type: Concentrated force
*Cload, op=NEW
CONTACT_ROW_4, 2, 35.556
CONTACT_ROW_4, 3, -190.564
** Name: C09D_W_SteelGravity   Type: Gravity
*Dload, op=NEW
, GRAV, 8829., 0., 0., -1.
** Name: D_S_mW_Contact_1   Type: Concentrated force
*Cload, op=NEW
** Name: D_S_mW_Contact_2   Type: Concentrated force
*Cload, op=NEW
** Name: D_S_mW_Contact_3   Type: Concentrated force
*Cload, op=NEW
** Name: D_S_mW_Contact_4   Type: Concentrated force
*Cload, op=NEW
** Name: D_S_mW_SteelGravity   Type: Gravity
*Dload, op=NEW
** 
** OUTPUT REQUESTS
** 
*Restart, write, frequency=0
** 
** FIELD OUTPUT: Nodal
** 
*Output, field, frequency=99999
*Node Output
RF, RM, U
** 
** FIELD OUTPUT: Section_P2
** 
*Element Output, elset=FRAME.P2, directions=YES
1, 2, 3, 4, 5, 6, 7, 8, 9, 10, 11
S, SF
** 
** FIELD OUTPUT: Section_P3
** 
*Element Output, elset=FRAME.P3, directions=YES
1, 2, 3, 4, 5, 6, 7, 8, 9, 10, 11
S, SF
** 
** FIELD OUTPUT: Section_P4
** 
*Element Output, elset=FRAME.P4, directions=YES
1, 2, 3, 4, 5, 6, 7, 8, 9, 10, 11
S, SF
** 
** FIELD OUTPUT: Section_P5
** 
*Element Output, elset=FRAME.P5, directions=YES
1, 2, 3, 4, 5, 6, 7, 8, 9, 10, 11
S, SF
** 
** FIELD OUTPUT: Section_P6
** 
*Element Output, elset=FRAME.P6, directions=YES
1, 2, 3, 4, 5, 6, 7
S, SF
** 
** HISTORY OUTPUT: Energy
** 
*Output, history
*Energy Output
ALLSE, ALLWK
*End Step
** ----------------------------------------------------------------
** 
** STEP: C09D_mW
** 
*Step, name=C09D_mW, nlgeom=NO
*Static
1., 1., 1e-05, 1.
** 
** LOADS
** 
** Name: C09D_W_Contact_1   Type: Concentrated force
*Cload, op=NEW
** Name: C09D_W_Contact_2   Type: Concentrated force
*Cload, op=NEW
** Name: C09D_W_Contact_3   Type: Concentrated force
*Cload, op=NEW
** Name: C09D_W_Contact_4   Type: Concentrated force
*Cload, op=NEW
** Name: C09D_W_SteelGravity   Type: Gravity
*Dload, op=NEW
** Name: C09D_mW_Contact_1   Type: Concentrated force
*Cload, op=NEW
CONTACT_ROW_1, 2, -35.556
CONTACT_ROW_1, 3, -38.0225
** Name: C09D_mW_Contact_2   Type: Concentrated force
*Cload, op=NEW
CONTACT_ROW_2, 2, -35.556
CONTACT_ROW_2, 3, -38.0225
** Name: C09D_mW_Contact_3   Type: Concentrated force
*Cload, op=NEW
CONTACT_ROW_3, 2, -35.556
CONTACT_ROW_3, 3, -38.0225
** Name: C09D_mW_Contact_4   Type: Concentrated force
*Cload, op=NEW
CONTACT_ROW_4, 2, -35.556
CONTACT_ROW_4, 3, -38.0225
** Name: C09D_mW_SteelGravity   Type: Gravity
*Dload, op=NEW
, GRAV, 8829., 0., 0., -1.
** 
** OUTPUT REQUESTS
** 
*Restart, write, frequency=0
** 
** FIELD OUTPUT: Nodal
** 
*Output, field, frequency=99999
*Node Output
RF, RM, U
** 
** FIELD OUTPUT: Section_P2
** 
*Element Output, elset=FRAME.P2, directions=YES
1, 2, 3, 4, 5, 6, 7, 8, 9, 10, 11
S, SF
** 
** FIELD OUTPUT: Section_P3
** 
*Element Output, elset=FRAME.P3, directions=YES
1, 2, 3, 4, 5, 6, 7, 8, 9, 10, 11
S, SF
** 
** FIELD OUTPUT: Section_P4
** 
*Element Output, elset=FRAME.P4, directions=YES
1, 2, 3, 4, 5, 6, 7, 8, 9, 10, 11
S, SF
** 
** FIELD OUTPUT: Section_P5
** 
*Element Output, elset=FRAME.P5, directions=YES
1, 2, 3, 4, 5, 6, 7, 8, 9, 10, 11
S, SF
** 
** FIELD OUTPUT: Section_P6
** 
*Element Output, elset=FRAME.P6, directions=YES
1, 2, 3, 4, 5, 6, 7
S, SF
** 
** HISTORY OUTPUT: Energy
** 
*Output, history
*Energy Output
ALLSE, ALLWK
*End Step
