*Heading
 Solar support; see assumptions and run metadata; N mm tonne s
** Job name: Solar_021_rows_web_offset Model name: SolarSupport
** Generated by: Abaqus/CAE 2024
*Preprint, echo=NO, model=NO, history=NO, contact=NO
**
** PARTS
**
*Part, name=SteelFrame
*Node
      1,       18148.,           0.,         927.
      2,       18148.,   2134.36011,   416.769989
      3,       18148.,   2134.36011,        2047.
      4,       18148.,           0.,        1052.
      5,       18148.,           0.,           0.
      6,       18148.,   2134.36011,           0.
      7,   17782.5957,   2433.50488,   2186.45581
      8,   18195.0508,   2433.50488,   2186.45581
      9,   18195.0508,   2888.94629,   2398.77441
     10,   16957.6875,   2433.50488,   2186.45581
     11,   18195.0508,   2134.36011,        2047.
     12,   16132.7783,   2433.50488,   2186.45581
     13,   15307.8691,   2433.50488,   2186.45581
     14,     14482.96,   2433.50488,   2186.45581
     15,   13658.0508,   2433.50488,   2186.45581
     16,   12833.1416,   2433.50488,   2186.45581
     17,   12008.2324,   2433.50488,   2186.45581
     18,   11183.3242,   2433.50488,   2186.45581
     19,    10358.415,   2433.50488,   2186.45581
     20,   9533.50586,   2433.50488,   2186.45581
     21,   9121.05078,   2433.50488,   2186.45581
     22,   8708.59668,   2433.50488,   2186.45581
     23,    7883.6875,   2433.50488,   2186.45581
     24,   7058.77832,   2433.50488,   2186.45581
     25,   6233.86914,   2433.50488,   2186.45581
     26,   5408.95996,   2433.50488,   2186.45581
     27,   4584.05127,   2433.50488,   2186.45581
     28,   3759.14185,   2433.50488,   2186.45581
     29,   2934.23291,   2433.50488,   2186.45581
     30,   2109.32373,   2433.50488,   2186.45581
     31,   1284.41467,   2433.50488,   2186.45581
     32,   459.505615,   2433.50488,   2186.45581
     33,   47.0510559,   2433.50488,   2186.45581
     34,   47.0510559,   2888.94629,   2398.77441
     35,   18195.0508,   1522.62158,    1761.8186
     36,   18195.0508,   611.738403,    1337.1814
     37,   18195.0508,           0.,        1052.
     38,   18195.0508,  -299.144806,   912.544128
     39,   18195.0508,  -754.586365,   700.225464
     40,   13658.0508,   2888.94629,   2398.77441
     41,   13658.0508,   2134.36011,        2047.
     42,   13658.0508,   1522.62158,    1761.8186
     43,   13658.0508,   611.738403,    1337.1814
     44,   13658.0508,           0.,        1052.
     45,   13658.0508,  -299.144806,   912.544128
     46,   13658.0508,  -754.586365,   700.225464
     47,   9121.05078,   2888.94629,   2398.77441
     48,   9121.05078,   2134.36011,        2047.
     49,   9121.05078,   1522.62158,    1761.8186
     50,   9121.05078,   611.738403,    1337.1814
     51,   9121.05078,           0.,        1052.
     52,   9121.05078,  -299.144806,   912.544128
     53,   9121.05078,  -754.586365,   700.225464
     54,   4584.05127,   2888.94629,   2398.77441
     55,   4584.05127,   2134.36011,        2047.
     56,   4584.05127,   1522.62158,    1761.8186
     57,   4584.05127,   611.738403,    1337.1814
     58,   4584.05127,           0.,        1052.
     59,   4584.05127,  -299.144806,   912.544128
     60,   4584.05127,  -754.586365,   700.225464
     61,   47.0510559,   2134.36011,        2047.
     62,   47.0510559,   1522.62158,    1761.8186
     63,   47.0510559,   611.738403,    1337.1814
     64,   47.0510559,           0.,        1052.
     65,   47.0510559,  -299.144806,   912.544128
     66,   47.0510559,  -754.586365,   700.225464
     67,   17782.5957,   1522.62158,    1761.8186
     68,   16957.6875,   1522.62158,    1761.8186
     69,   16132.7783,   1522.62158,    1761.8186
     70,   15307.8691,   1522.62158,    1761.8186
     71,     14482.96,   1522.62158,    1761.8186
     72,   12833.1416,   1522.62158,    1761.8186
     73,   12008.2324,   1522.62158,    1761.8186
     74,   11183.3242,   1522.62158,    1761.8186
     75,    10358.415,   1522.62158,    1761.8186
     76,   9533.50586,   1522.62158,    1761.8186
     77,   8708.59668,   1522.62158,    1761.8186
     78,    7883.6875,   1522.62158,    1761.8186
     79,   7058.77832,   1522.62158,    1761.8186
     80,   6233.86914,   1522.62158,    1761.8186
     81,   5408.95996,   1522.62158,    1761.8186
     82,   3759.14185,   1522.62158,    1761.8186
     83,   2934.23291,   1522.62158,    1761.8186
     84,   2109.32373,   1522.62158,    1761.8186
     85,   1284.41467,   1522.62158,    1761.8186
     86,   459.505615,   1522.62158,    1761.8186
     87,   17782.5957,   611.738403,    1337.1814
     88,   16957.6875,   611.738403,    1337.1814
     89,   16132.7783,   611.738403,    1337.1814
     90,   15307.8691,   611.738403,    1337.1814
     91,     14482.96,   611.738403,    1337.1814
     92,   12833.1416,   611.738403,    1337.1814
     93,   12008.2324,   611.738403,    1337.1814
     94,   11183.3242,   611.738403,    1337.1814
     95,    10358.415,   611.738403,    1337.1814
     96,   9533.50586,   611.738403,    1337.1814
     97,   8708.59668,   611.738403,    1337.1814
     98,    7883.6875,   611.738403,    1337.1814
     99,   7058.77832,   611.738403,    1337.1814
    100,   6233.86914,   611.738403,    1337.1814
    101,   5408.95996,   611.738403,    1337.1814
    102,   3759.14185,   611.738403,    1337.1814
    103,   2934.23291,   611.738403,    1337.1814
    104,   2109.32373,   611.738403,    1337.1814
    105,   1284.41467,   611.738403,    1337.1814
    106,   459.505615,   611.738403,    1337.1814
    107,   17782.5957,  -299.144806,   912.544128
    108,   16957.6875,  -299.144806,   912.544128
    109,   16132.7783,  -299.144806,   912.544128
    110,   15307.8691,  -299.144806,   912.544128
    111,     14482.96,  -299.144806,   912.544128
    112,   12833.1416,  -299.144806,   912.544128
    113,   12008.2324,  -299.144806,   912.544128
    114,   11183.3242,  -299.144806,   912.544128
    115,    10358.415,  -299.144806,   912.544128
    116,   9533.50586,  -299.144806,   912.544128
    117,   8708.59668,  -299.144806,   912.544128
    118,    7883.6875,  -299.144806,   912.544128
    119,   7058.77832,  -299.144806,   912.544128
    120,   6233.86914,  -299.144806,   912.544128
    121,   5408.95996,  -299.144806,   912.544128
    122,   3759.14185,  -299.144806,   912.544128
    123,   2934.23291,  -299.144806,   912.544128
    124,   2109.32373,  -299.144806,   912.544128
    125,   1284.41467,  -299.144806,   912.544128
    126,   459.505615,  -299.144806,   912.544128
    127,        9074.,           0.,         927.
    128,        9074.,   2134.36011,   416.769989
    129,        9074.,   2134.36011,        2047.
    130,        9074.,           0.,        1052.
    131,        9074.,           0.,           0.
    132,        9074.,   2134.36011,           0.
    133,           0.,           0.,         927.
    134,           0.,   2134.36011,   416.769989
    135,           0.,   2134.36011,        2047.
    136,           0.,           0.,        1052.
    137,           0.,           0.,           0.
    138,           0.,   2134.36011,           0.
    139,        4537.,           0.,         927.
    140,        4537.,   2134.36011,   416.769989
    141,        4537.,   2134.36011,        2047.
    142,        4537.,           0.,        1052.
    143,        4537.,           0.,           0.
    144,        4537.,   2134.36011,           0.
    145,       13611.,           0.,         927.
    146,       13611.,   2134.36011,   416.769989
    147,       13611.,   2134.36011,        2047.
    148,       13611.,           0.,        1052.
    149,       13611.,           0.,           0.
    150,       13611.,   2134.36011,           0.
    151,       18148.,   48.5081825,    915.40387
    152,       18148.,   97.0163651,   903.807739
    153,       18148.,   145.524551,   892.211609
    154,       18148.,    194.03273,   880.615479
    155,       18148.,   242.540909,   869.019348
    156,       18148.,   291.049103,   857.423157
    157,       18148.,   339.557281,   845.827026
    158,       18148.,    388.06546,   834.230896
    159,       18148.,   436.573639,   822.634766
    160,       18148.,   485.081818,   811.038635
    161,       18148.,   533.590027,   799.442505
    162,       18148.,   582.098206,   787.846375
    163,       18148.,   630.606384,   776.250244
    164,       18148.,   679.114563,   764.654114
    165,       18148.,   727.622742,   753.057983
    166,       18148.,    776.13092,   741.461792
    167,       18148.,   824.639099,   729.865662
    168,       18148.,   873.147278,   718.269531
    169,       18148.,   921.655457,   706.673401
    170,       18148.,   970.163635,   695.077271
    171,       18148.,   1018.67181,    683.48114
    172,       18148.,   1067.18005,    671.88501
    173,       18148.,   1115.68823,   660.288879
    174,       18148.,   1164.19641,   648.692749
    175,       18148.,   1212.70459,   637.096619
    176,       18148.,   1261.21277,   625.500427
    177,       18148.,   1309.72095,   613.904297
    178,       18148.,   1358.22913,   602.308167
    179,       18148.,    1406.7373,   590.712036
    180,       18148.,   1455.24548,   579.115906
    181,       18148.,   1503.75366,   567.519775
    182,       18148.,   1552.26184,   555.923645
    183,       18148.,   1600.77002,   544.327515
    184,       18148.,    1649.2782,   532.731384
    185,       18148.,   1697.78638,   521.135254
    186,       18148.,   1746.29456,   509.539093
    187,       18148.,   1794.80273,   497.942963
    188,       18148.,   1843.31091,   486.346832
    189,       18148.,   1891.81909,   474.750671
    190,       18148.,   1940.32727,   463.154541
    191,       18148.,   1988.83545,   451.558411
    192,       18148.,   2037.34363,    439.96228
    193,       18148.,   2085.85181,    428.36615
    194,       18148.,   2134.36011,   466.170898
    195,       18148.,   2134.36011,   515.571838
    196,       18148.,   2134.36011,   564.972717
    197,       18148.,   2134.36011,   614.373657
    198,       18148.,   2134.36011,   663.774536
    199,       18148.,   2134.36011,   713.175476
    200,       18148.,   2134.36011,   762.576355
    201,       18148.,   2134.36011,   811.977295
    202,       18148.,   2134.36011,   861.378174
    203,       18148.,   2134.36011,   910.779114
    204,       18148.,   2134.36011,   960.179993
    205,       18148.,   2134.36011,   1009.58093
    206,       18148.,   2134.36011,   1058.98181
    207,       18148.,   2134.36011,   1108.38269
    208,       18148.,   2134.36011,   1157.78369
    209,       18148.,   2134.36011,   1207.18457
    210,       18148.,   2134.36011,   1256.58545
    211,       18148.,   2134.36011,   1305.98633
    212,       18148.,   2134.36011,   1355.38733
    213,       18148.,   2134.36011,   1404.78821
    214,       18148.,   2134.36011,   1454.18909
    215,       18148.,   2134.36011,   1503.58997
    216,       18148.,   2134.36011,   1552.99097
    217,       18148.,   2134.36011,   1602.39185
    218,       18148.,   2134.36011,   1651.79272
    219,       18148.,   2134.36011,    1701.1936
    220,       18148.,   2134.36011,    1750.5946
    221,       18148.,   2134.36011,   1799.99548
    222,       18148.,   2134.36011,   1849.39636
    223,       18148.,   2134.36011,   1898.79724
    224,       18148.,   2134.36011,   1948.19824
    225,       18148.,   2134.36011,   1997.59912
    226,       18148.,           0.,   968.666687
    227,       18148.,           0.,   1010.33331
    228,       18148.,           0.,   48.7894745
    229,       18148.,           0.,    97.578949
    230,       18148.,           0.,   146.368423
    231,       18148.,           0.,   195.157898
    232,       18148.,           0.,   243.947372
    233,       18148.,           0.,   292.736847
    234,       18148.,           0.,   341.526306
    235,       18148.,           0.,   390.315796
    236,       18148.,           0.,   439.105255
    237,       18148.,           0.,   487.894745
    238,       18148.,           0.,   536.684204
    239,       18148.,           0.,   585.473694
    240,       18148.,           0.,   634.263184
    241,       18148.,           0.,   683.052612
    242,       18148.,           0.,   731.842102
    243,       18148.,           0.,   780.631592
    244,       18148.,           0.,   829.421082
    245,       18148.,           0.,    878.21051
    246,       18148.,   2134.36011,   52.0962486
    247,       18148.,   2134.36011,   104.192497
    248,       18148.,   2134.36011,   156.288757
    249,       18148.,   2134.36011,   208.384995
    250,       18148.,   2134.36011,   260.481262
    251,       18148.,   2134.36011,   312.577515
    252,       18148.,   2134.36011,   364.673737
    253,   17834.1543,   2433.50488,   2186.45581
    254,   17885.7109,   2433.50488,   2186.45581
    255,   17937.2676,   2433.50488,   2186.45581
    256,   17988.8242,   2433.50488,   2186.45581
    257,   18040.3809,   2433.50488,   2186.45581
    258,   18091.9375,   2433.50488,   2186.45581
    259,   18143.4941,   2433.50488,   2186.45581
    260,   18195.0508,   2479.04907,   2207.68774
    261,   18195.0508,   2524.59302,   2228.91968
    262,   18195.0508,   2570.13721,   2250.15137
    263,   18195.0508,    2615.6814,    2271.3833
    264,   18195.0508,   2661.22559,   2292.61523
    265,   18195.0508,   2706.76978,   2313.84717
    266,   18195.0508,   2752.31396,   2335.07886
    267,   18195.0508,   2797.85815,   2356.31079
    268,   18195.0508,   2843.40234,   2377.54272
    269,   17009.2441,   2433.50488,   2186.45581
    270,   17060.8008,   2433.50488,   2186.45581
    271,   17112.3574,   2433.50488,   2186.45581
    272,   17163.9141,   2433.50488,   2186.45581
    273,   17215.4707,   2433.50488,   2186.45581
    274,   17267.0293,   2433.50488,   2186.45581
    275,   17318.5859,   2433.50488,   2186.45581
    276,   17370.1426,   2433.50488,   2186.45581
    277,   17421.6992,   2433.50488,   2186.45581
    278,   17473.2559,   2433.50488,   2186.45581
    279,   17524.8125,   2433.50488,   2186.45581
    280,   17576.3691,   2433.50488,   2186.45581
    281,   17627.9258,   2433.50488,   2186.45581
    282,   17679.4824,   2433.50488,   2186.45581
    283,   17731.0391,   2433.50488,   2186.45581
    284,   18195.0508,   2177.09497,   2066.92236
    285,   18195.0508,   2219.82983,   2086.84448
    286,   18195.0508,   2262.56494,   2106.76685
    287,   18195.0508,    2305.2998,   2126.68896
    288,   18195.0508,   2348.03491,   2146.61133
    289,   18195.0508,   2390.76978,   2166.53369
    290,    16184.335,   2433.50488,   2186.45581
    291,   16235.8916,   2433.50488,   2186.45581
    292,   16287.4492,   2433.50488,   2186.45581
    293,   16339.0059,   2433.50488,   2186.45581
    294,   16390.5625,   2433.50488,   2186.45581
    295,   16442.1191,   2433.50488,   2186.45581
    296,   16493.6758,   2433.50488,   2186.45581
    297,   16545.2324,   2433.50488,   2186.45581
    298,   16596.7891,   2433.50488,   2186.45581
    299,   16648.3457,   2433.50488,   2186.45581
    300,   16699.9043,   2433.50488,   2186.45581
    301,   16751.4609,   2433.50488,   2186.45581
    302,   16803.0176,   2433.50488,   2186.45581
    303,   16854.5742,   2433.50488,   2186.45581
    304,   16906.1309,   2433.50488,   2186.45581
    305,   15359.4258,   2433.50488,   2186.45581
    306,   15410.9824,   2433.50488,   2186.45581
    307,     15462.54,   2433.50488,   2186.45581
    308,   15514.0967,   2433.50488,   2186.45581
    309,   15565.6533,   2433.50488,   2186.45581
    310,     15617.21,   2433.50488,   2186.45581
    311,   15668.7666,   2433.50488,   2186.45581
    312,   15720.3242,   2433.50488,   2186.45581
    313,   15771.8809,   2433.50488,   2186.45581
    314,   15823.4375,   2433.50488,   2186.45581
    315,   15874.9941,   2433.50488,   2186.45581
    316,   15926.5508,   2433.50488,   2186.45581
    317,   15978.1074,   2433.50488,   2186.45581
    318,    16029.665,   2433.50488,   2186.45581
    319,   16081.2217,   2433.50488,   2186.45581
    320,   14534.5166,   2433.50488,   2186.45581
    321,   14586.0742,   2433.50488,   2186.45581
    322,   14637.6309,   2433.50488,   2186.45581
    323,   14689.1875,   2433.50488,   2186.45581
    324,   14740.7441,   2433.50488,   2186.45581
    325,   14792.3008,   2433.50488,   2186.45581
    326,   14843.8574,   2433.50488,   2186.45581
    327,    14895.415,   2433.50488,   2186.45581
    328,   14946.9717,   2433.50488,   2186.45581
    329,   14998.5283,   2433.50488,   2186.45581
    330,    15050.085,   2433.50488,   2186.45581
    331,   15101.6416,   2433.50488,   2186.45581
    332,   15153.1992,   2433.50488,   2186.45581
    333,   15204.7559,   2433.50488,   2186.45581
    334,   15256.3125,   2433.50488,   2186.45581
    335,   13709.6074,   2433.50488,   2186.45581
    336,    13761.165,   2433.50488,   2186.45581
    337,   13812.7217,   2433.50488,   2186.45581
    338,   13864.2783,   2433.50488,   2186.45581
    339,    13915.835,   2433.50488,   2186.45581
    340,   13967.3916,   2433.50488,   2186.45581
    341,   14018.9492,   2433.50488,   2186.45581
    342,   14070.5059,   2433.50488,   2186.45581
    343,   14122.0625,   2433.50488,   2186.45581
    344,   14173.6191,   2433.50488,   2186.45581
    345,   14225.1758,   2433.50488,   2186.45581
    346,   14276.7324,   2433.50488,   2186.45581
    347,     14328.29,   2433.50488,   2186.45581
    348,   14379.8467,   2433.50488,   2186.45581
    349,   14431.4033,   2433.50488,   2186.45581
    350,   12884.6992,   2433.50488,   2186.45581
    351,   12936.2559,   2433.50488,   2186.45581
    352,   12987.8125,   2433.50488,   2186.45581
    353,   13039.3691,   2433.50488,   2186.45581
    354,   13090.9258,   2433.50488,   2186.45581
    355,   13142.4824,   2433.50488,   2186.45581
    356,     13194.04,   2433.50488,   2186.45581
    357,   13245.5967,   2433.50488,   2186.45581
    358,   13297.1533,   2433.50488,   2186.45581
    359,     13348.71,   2433.50488,   2186.45581
    360,   13400.2666,   2433.50488,   2186.45581
    361,   13451.8242,   2433.50488,   2186.45581
    362,   13503.3809,   2433.50488,   2186.45581
    363,   13554.9375,   2433.50488,   2186.45581
    364,   13606.4941,   2433.50488,   2186.45581
    365,     12059.79,   2433.50488,   2186.45581
    366,   12111.3467,   2433.50488,   2186.45581
    367,   12162.9033,   2433.50488,   2186.45581
    368,     12214.46,   2433.50488,   2186.45581
    369,   12266.0166,   2433.50488,   2186.45581
    370,   12317.5742,   2433.50488,   2186.45581
    371,   12369.1309,   2433.50488,   2186.45581
    372,   12420.6875,   2433.50488,   2186.45581
    373,   12472.2441,   2433.50488,   2186.45581
    374,   12523.8008,   2433.50488,   2186.45581
    375,   12575.3574,   2433.50488,   2186.45581
    376,    12626.915,   2433.50488,   2186.45581
    377,   12678.4717,   2433.50488,   2186.45581
    378,   12730.0283,   2433.50488,   2186.45581
    379,    12781.585,   2433.50488,   2186.45581
    380,   11234.8809,   2433.50488,   2186.45581
    381,   11286.4375,   2433.50488,   2186.45581
    382,   11337.9941,   2433.50488,   2186.45581
    383,   11389.5508,   2433.50488,   2186.45581
    384,   11441.1074,   2433.50488,   2186.45581
    385,    11492.665,   2433.50488,   2186.45581
    386,   11544.2217,   2433.50488,   2186.45581
    387,   11595.7783,   2433.50488,   2186.45581
    388,    11647.335,   2433.50488,   2186.45581
    389,   11698.8916,   2433.50488,   2186.45581
    390,   11750.4492,   2433.50488,   2186.45581
    391,   11802.0059,   2433.50488,   2186.45581
    392,   11853.5625,   2433.50488,   2186.45581
    393,   11905.1191,   2433.50488,   2186.45581
    394,   11956.6758,   2433.50488,   2186.45581
    395,   10409.9717,   2433.50488,   2186.45581
    396,   10461.5283,   2433.50488,   2186.45581
    397,    10513.085,   2433.50488,   2186.45581
    398,   10564.6416,   2433.50488,   2186.45581
    399,   10616.1992,   2433.50488,   2186.45581
    400,   10667.7559,   2433.50488,   2186.45581
    401,   10719.3125,   2433.50488,   2186.45581
    402,   10770.8691,   2433.50488,   2186.45581
    403,   10822.4258,   2433.50488,   2186.45581
    404,   10873.9824,   2433.50488,   2186.45581
    405,     10925.54,   2433.50488,   2186.45581
    406,   10977.0967,   2433.50488,   2186.45581
    407,   11028.6533,   2433.50488,   2186.45581
    408,     11080.21,   2433.50488,   2186.45581
    409,   11131.7666,   2433.50488,   2186.45581
    410,    9585.0625,   2433.50488,   2186.45581
    411,   9636.61914,   2433.50488,   2186.45581
    412,   9688.17578,   2433.50488,   2186.45581
    413,   9739.73242,   2433.50488,   2186.45581
    414,   9791.29004,   2433.50488,   2186.45581
    415,   9842.84668,   2433.50488,   2186.45581
    416,   9894.40332,   2433.50488,   2186.45581
    417,   9945.95996,   2433.50488,   2186.45581
    418,    9997.5166,   2433.50488,   2186.45581
    419,   10049.0742,   2433.50488,   2186.45581
    420,   10100.6309,   2433.50488,   2186.45581
    421,   10152.1875,   2433.50488,   2186.45581
    422,   10203.7441,   2433.50488,   2186.45581
    423,   10255.3008,   2433.50488,   2186.45581
    424,   10306.8574,   2433.50488,   2186.45581
    425,   9172.60742,   2433.50488,   2186.45581
    426,   9224.16504,   2433.50488,   2186.45581
    427,   9275.72168,   2433.50488,   2186.45581
    428,   9327.27832,   2433.50488,   2186.45581
    429,   9378.83496,   2433.50488,   2186.45581
    430,    9430.3916,   2433.50488,   2186.45581
    431,   9481.94922,   2433.50488,   2186.45581
    432,   8760.15332,   2433.50488,   2186.45581
    433,   8811.70996,   2433.50488,   2186.45581
    434,    8863.2666,   2433.50488,   2186.45581
    435,   8914.82422,   2433.50488,   2186.45581
    436,   8966.38086,   2433.50488,   2186.45581
    437,    9017.9375,   2433.50488,   2186.45581
    438,   9069.49414,   2433.50488,   2186.45581
    439,   7935.24414,   2433.50488,   2186.45581
    440,   7986.80127,   2433.50488,   2186.45581
    441,   8038.35791,   2433.50488,   2186.45581
    442,   8089.91455,   2433.50488,   2186.45581
    443,   8141.47168,   2433.50488,   2186.45581
    444,   8193.02832,   2433.50488,   2186.45581
    445,   8244.58496,   2433.50488,   2186.45581
    446,    8296.1416,   2433.50488,   2186.45581
    447,   8347.69922,   2433.50488,   2186.45581
    448,   8399.25586,   2433.50488,   2186.45581
    449,    8450.8125,   2433.50488,   2186.45581
    450,   8502.36914,   2433.50488,   2186.45581
    451,   8553.92578,   2433.50488,   2186.45581
    452,   8605.48242,   2433.50488,   2186.45581
    453,   8657.04004,   2433.50488,   2186.45581
    454,   7110.33496,   2433.50488,   2186.45581
    455,   7161.89209,   2433.50488,   2186.45581
    456,   7213.44873,   2433.50488,   2186.45581
    457,   7265.00537,   2433.50488,   2186.45581
    458,    7316.5625,   2433.50488,   2186.45581
    459,   7368.11914,   2433.50488,   2186.45581
    460,   7419.67627,   2433.50488,   2186.45581
    461,   7471.23291,   2433.50488,   2186.45581
    462,   7522.78955,   2433.50488,   2186.45581
    463,   7574.34668,   2433.50488,   2186.45581
    464,   7625.90332,   2433.50488,   2186.45581
    465,   7677.45996,   2433.50488,   2186.45581
    466,   7729.01709,   2433.50488,   2186.45581
    467,   7780.57373,   2433.50488,   2186.45581
    468,   7832.13037,   2433.50488,   2186.45581
    469,   6285.42627,   2433.50488,   2186.45581
    470,   6336.98291,   2433.50488,   2186.45581
    471,   6388.53955,   2433.50488,   2186.45581
    472,   6440.09668,   2433.50488,   2186.45581
    473,   6491.65332,   2433.50488,   2186.45581
    474,   6543.20996,   2433.50488,   2186.45581
    475,   6594.76709,   2433.50488,   2186.45581
    476,   6646.32373,   2433.50488,   2186.45581
    477,   6697.88037,   2433.50488,   2186.45581
    478,    6749.4375,   2433.50488,   2186.45581
    479,   6800.99414,   2433.50488,   2186.45581
    480,   6852.55127,   2433.50488,   2186.45581
    481,   6904.10791,   2433.50488,   2186.45581
    482,   6955.66455,   2433.50488,   2186.45581
    483,   7007.22168,   2433.50488,   2186.45581
    484,   5460.51709,   2433.50488,   2186.45581
    485,   5512.07373,   2433.50488,   2186.45581
    486,   5563.63037,   2433.50488,   2186.45581
    487,    5615.1875,   2433.50488,   2186.45581
    488,   5666.74414,   2433.50488,   2186.45581
    489,   5718.30127,   2433.50488,   2186.45581
    490,   5769.85791,   2433.50488,   2186.45581
    491,   5821.41455,   2433.50488,   2186.45581
    492,   5872.97168,   2433.50488,   2186.45581
    493,   5924.52832,   2433.50488,   2186.45581
    494,   5976.08496,   2433.50488,   2186.45581
    495,   6027.64209,   2433.50488,   2186.45581
    496,   6079.19873,   2433.50488,   2186.45581
    497,   6130.75537,   2433.50488,   2186.45581
    498,    6182.3125,   2433.50488,   2186.45581
    499,   4635.60791,   2433.50488,   2186.45581
    500,   4687.16455,   2433.50488,   2186.45581
    501,   4738.72168,   2433.50488,   2186.45581
    502,   4790.27832,   2433.50488,   2186.45581
    503,   4841.83496,   2433.50488,   2186.45581
    504,   4893.39209,   2433.50488,   2186.45581
    505,   4944.94873,   2433.50488,   2186.45581
    506,   4996.50537,   2433.50488,   2186.45581
    507,    5048.0625,   2433.50488,   2186.45581
    508,   5099.61914,   2433.50488,   2186.45581
    509,   5151.17627,   2433.50488,   2186.45581
    510,   5202.73291,   2433.50488,   2186.45581
    511,   5254.28955,   2433.50488,   2186.45581
    512,   5305.84668,   2433.50488,   2186.45581
    513,   5357.40332,   2433.50488,   2186.45581
    514,   3810.69873,   2433.50488,   2186.45581
    515,   3862.25562,   2433.50488,   2186.45581
    516,    3913.8125,   2433.50488,   2186.45581
    517,   3965.36914,   2433.50488,   2186.45581
    518,   4016.92603,   2433.50488,   2186.45581
    519,   4068.48291,   2433.50488,   2186.45581
    520,   4120.03955,   2433.50488,   2186.45581
    521,   4171.59668,   2433.50488,   2186.45581
    522,   4223.15332,   2433.50488,   2186.45581
    523,   4274.70996,   2433.50488,   2186.45581
    524,   4326.26709,   2433.50488,   2186.45581
    525,   4377.82373,   2433.50488,   2186.45581
    526,   4429.38037,   2433.50488,   2186.45581
    527,    4480.9375,   2433.50488,   2186.45581
    528,   4532.49414,   2433.50488,   2186.45581
    529,   2985.78979,   2433.50488,   2186.45581
    530,   3037.34644,   2433.50488,   2186.45581
    531,   3088.90332,   2433.50488,   2186.45581
    532,   3140.46021,   2433.50488,   2186.45581
    533,   3192.01685,   2433.50488,   2186.45581
    534,   3243.57373,   2433.50488,   2186.45581
    535,   3295.13062,   2433.50488,   2186.45581
    536,    3346.6875,   2433.50488,   2186.45581
    537,   3398.24414,   2433.50488,   2186.45581
    538,   3449.80103,   2433.50488,   2186.45581
    539,   3501.35791,   2433.50488,   2186.45581
    540,   3552.91479,   2433.50488,   2186.45581
    541,   3604.47144,   2433.50488,   2186.45581
    542,   3656.02832,   2433.50488,   2186.45581
    543,   3707.58521,   2433.50488,   2186.45581
    544,   2160.88062,   2433.50488,   2186.45581
    545,    2212.4375,   2433.50488,   2186.45581
    546,   2263.99414,   2433.50488,   2186.45581
    547,   2315.55103,   2433.50488,   2186.45581
    548,   2367.10791,   2433.50488,   2186.45581
    549,   2418.66479,   2433.50488,   2186.45581
    550,   2470.22144,   2433.50488,   2186.45581
    551,   2521.77832,   2433.50488,   2186.45581
    552,   2573.33521,   2433.50488,   2186.45581
    553,   2624.89185,   2433.50488,   2186.45581
    554,   2676.44873,   2433.50488,   2186.45581
    555,   2728.00562,   2433.50488,   2186.45581
    556,    2779.5625,   2433.50488,   2186.45581
    557,   2831.11914,   2433.50488,   2186.45581
    558,   2882.67603,   2433.50488,   2186.45581
    559,   1335.97156,   2433.50488,   2186.45581
    560,   1387.52832,   2433.50488,   2186.45581
    561,   1439.08521,   2433.50488,   2186.45581
    562,   1490.64197,   2433.50488,   2186.45581
    563,   1542.19873,   2433.50488,   2186.45581
    564,   1593.75562,   2433.50488,   2186.45581
    565,   1645.31238,   2433.50488,   2186.45581
    566,   1696.86926,   2433.50488,   2186.45581
    567,   1748.42603,   2433.50488,   2186.45581
    568,   1799.98291,   2433.50488,   2186.45581
    569,   1851.53967,   2433.50488,   2186.45581
    570,   1903.09656,   2433.50488,   2186.45581
    571,   1954.65332,   2433.50488,   2186.45581
    572,   2006.21021,   2433.50488,   2186.45581
    573,   2057.76685,   2433.50488,   2186.45581
    574,   511.062408,   2433.50488,   2186.45581
    575,   562.619263,   2433.50488,   2186.45581
    576,   614.176086,   2433.50488,   2186.45581
    577,   665.732849,   2433.50488,   2186.45581
    578,   717.289673,   2433.50488,   2186.45581
    579,   768.846497,   2433.50488,   2186.45581
    580,    820.40332,   2433.50488,   2186.45581
    581,   871.960144,   2433.50488,   2186.45581
    582,   923.516968,   2433.50488,   2186.45581
    583,   975.073792,   2433.50488,   2186.45581
    584,   1026.63062,   2433.50488,   2186.45581
    585,   1078.18738,   2433.50488,   2186.45581
    586,   1129.74426,   2433.50488,   2186.45581
    587,   1181.30103,   2433.50488,   2186.45581
    588,   1232.85791,   2433.50488,   2186.45581
    589,    98.607872,   2433.50488,   2186.45581
    590,   150.164688,   2433.50488,   2186.45581
    591,   201.721512,   2433.50488,   2186.45581
    592,   253.278336,   2433.50488,   2186.45581
    593,   304.835144,   2433.50488,   2186.45581
    594,   356.391968,   2433.50488,   2186.45581
    595,   407.948792,   2433.50488,   2186.45581
    596,   47.0510559,   2479.04907,   2207.68774
    597,   47.0510559,   2524.59302,   2228.91968
    598,   47.0510559,   2570.13721,   2250.15137
    599,   47.0510559,    2615.6814,    2271.3833
    600,   47.0510559,   2661.22559,   2292.61523
    601,   47.0510559,   2706.76978,   2313.84717
    602,   47.0510559,   2752.31396,   2335.07886
    603,   47.0510559,   2797.85815,   2356.31079
    604,   47.0510559,   2843.40234,   2377.54272
    605,   18195.0508,   1569.67834,   1783.75562
    606,   18195.0508,   1616.73523,   1805.69263
    607,   18195.0508,   1663.79199,   1827.62976
    608,   18195.0508,   1710.84875,   1849.56677
    609,   18195.0508,   1757.90564,   1871.50378
    610,   18195.0508,    1804.9624,    1893.4408
    611,   18195.0508,   1852.01917,   1915.37781
    612,   18195.0508,   1899.07605,   1937.31482
    613,   18195.0508,   1946.13281,   1959.25183
    614,   18195.0508,   1993.18958,   1981.18896
    615,   18195.0508,   2040.24646,   2003.12598
    616,   18195.0508,   2087.30322,   2025.06299
    617,   18195.0508,   657.282532,   1358.41321
    618,   18195.0508,   702.826721,   1379.64514
    619,   18195.0508,   748.370911,   1400.87695
    620,   18195.0508,   793.915039,   1422.10876
    621,   18195.0508,   839.459229,    1443.3407
    622,   18195.0508,   885.003357,   1464.57251
    623,   18195.0508,   930.547546,   1485.80444
    624,   18195.0508,   976.091675,   1507.03625
    625,   18195.0508,   1021.63586,   1528.26819
    626,   18195.0508,   1067.18005,       1549.5
    627,   18195.0508,   1112.72412,   1570.73181
    628,   18195.0508,   1158.26831,   1591.96375
    629,   18195.0508,    1203.8125,   1613.19556
    630,   18195.0508,   1249.35669,   1634.42749
    631,   18195.0508,   1294.90076,    1655.6593
    632,   18195.0508,   1340.44495,   1676.89124
    633,   18195.0508,   1385.98914,   1698.12305
    634,   18195.0508,   1431.53333,   1719.35486
    635,   18195.0508,   1477.07739,   1740.58679
    636,   18195.0508,   47.0568008,   1073.93701
    637,   18195.0508,   94.1136017,   1095.87402
    638,   18195.0508,   141.170395,   1117.81104
    639,   18195.0508,   188.227203,   1139.74817
    640,   18195.0508,   235.283997,   1161.68518
    641,   18195.0508,    282.34079,   1183.62219
    642,   18195.0508,   329.397614,    1205.5592
    643,   18195.0508,   376.454407,   1227.49622
    644,   18195.0508,     423.5112,   1249.43323
    645,   18195.0508,   470.567993,   1271.37024
    646,   18195.0508,   517.624817,   1293.30737
    647,   18195.0508,    564.68158,   1315.24438
    648,   18195.0508,  -256.409821,    932.46637
    649,   18195.0508,   -213.67485,   952.388672
    650,   18195.0508,   -170.93988,   972.310913
    651,   18195.0508,   -128.20491,   992.233215
    652,   18195.0508,  -85.4699402,   1012.15546
    653,   18195.0508,  -42.7349701,   1032.07776
    654,   18195.0508,  -709.042236,   721.457336
    655,   18195.0508,  -663.498047,   742.689209
    656,   18195.0508,  -617.953918,   763.921082
    657,   18195.0508,  -572.409729,   785.152954
    658,   18195.0508,  -526.865601,   806.384827
    659,   18195.0508,  -481.321442,   827.616638
    660,   18195.0508,  -435.777283,   848.848511
    661,   18195.0508,  -390.233124,   870.080383
    662,   18195.0508,  -344.688965,   891.312256
    663,   13658.0508,   2479.04907,   2207.68774
    664,   13658.0508,   2524.59302,   2228.91968
    665,   13658.0508,   2570.13721,   2250.15137
    666,   13658.0508,    2615.6814,    2271.3833
    667,   13658.0508,   2661.22559,   2292.61523
    668,   13658.0508,   2706.76978,   2313.84717
    669,   13658.0508,   2752.31396,   2335.07886
    670,   13658.0508,   2797.85815,   2356.31079
    671,   13658.0508,   2843.40234,   2377.54272
    672,   13658.0508,   2177.09497,   2066.92236
    673,   13658.0508,   2219.82983,   2086.84448
    674,   13658.0508,   2262.56494,   2106.76685
    675,   13658.0508,    2305.2998,   2126.68896
    676,   13658.0508,   2348.03491,   2146.61133
    677,   13658.0508,   2390.76978,   2166.53369
    678,   13658.0508,   1569.67834,   1783.75562
    679,   13658.0508,   1616.73523,   1805.69263
    680,   13658.0508,   1663.79199,   1827.62976
    681,   13658.0508,   1710.84875,   1849.56677
    682,   13658.0508,   1757.90564,   1871.50378
    683,   13658.0508,    1804.9624,    1893.4408
    684,   13658.0508,   1852.01917,   1915.37781
    685,   13658.0508,   1899.07605,   1937.31482
    686,   13658.0508,   1946.13281,   1959.25183
    687,   13658.0508,   1993.18958,   1981.18896
    688,   13658.0508,   2040.24646,   2003.12598
    689,   13658.0508,   2087.30322,   2025.06299
    690,   13658.0508,   657.282532,   1358.41321
    691,   13658.0508,   702.826721,   1379.64514
    692,   13658.0508,   748.370911,   1400.87695
    693,   13658.0508,   793.915039,   1422.10876
    694,   13658.0508,   839.459229,    1443.3407
    695,   13658.0508,   885.003357,   1464.57251
    696,   13658.0508,   930.547546,   1485.80444
    697,   13658.0508,   976.091675,   1507.03625
    698,   13658.0508,   1021.63586,   1528.26819
    699,   13658.0508,   1067.18005,       1549.5
    700,   13658.0508,   1112.72412,   1570.73181
    701,   13658.0508,   1158.26831,   1591.96375
    702,   13658.0508,    1203.8125,   1613.19556
    703,   13658.0508,   1249.35669,   1634.42749
    704,   13658.0508,   1294.90076,    1655.6593
    705,   13658.0508,   1340.44495,   1676.89124
    706,   13658.0508,   1385.98914,   1698.12305
    707,   13658.0508,   1431.53333,   1719.35486
    708,   13658.0508,   1477.07739,   1740.58679
    709,   13658.0508,   47.0568008,   1073.93701
    710,   13658.0508,   94.1136017,   1095.87402
    711,   13658.0508,   141.170395,   1117.81104
    712,   13658.0508,   188.227203,   1139.74817
    713,   13658.0508,   235.283997,   1161.68518
    714,   13658.0508,    282.34079,   1183.62219
    715,   13658.0508,   329.397614,    1205.5592
    716,   13658.0508,   376.454407,   1227.49622
    717,   13658.0508,     423.5112,   1249.43323
    718,   13658.0508,   470.567993,   1271.37024
    719,   13658.0508,   517.624817,   1293.30737
    720,   13658.0508,    564.68158,   1315.24438
    721,   13658.0508,  -256.409821,    932.46637
    722,   13658.0508,   -213.67485,   952.388672
    723,   13658.0508,   -170.93988,   972.310913
    724,   13658.0508,   -128.20491,   992.233215
    725,   13658.0508,  -85.4699402,   1012.15546
    726,   13658.0508,  -42.7349701,   1032.07776
    727,   13658.0508,  -709.042236,   721.457336
    728,   13658.0508,  -663.498047,   742.689209
    729,   13658.0508,  -617.953918,   763.921082
    730,   13658.0508,  -572.409729,   785.152954
    731,   13658.0508,  -526.865601,   806.384827
    732,   13658.0508,  -481.321442,   827.616638
    733,   13658.0508,  -435.777283,   848.848511
    734,   13658.0508,  -390.233124,   870.080383
    735,   13658.0508,  -344.688965,   891.312256
    736,   9121.05078,   2479.04907,   2207.68774
    737,   9121.05078,   2524.59302,   2228.91968
    738,   9121.05078,   2570.13721,   2250.15137
    739,   9121.05078,    2615.6814,    2271.3833
    740,   9121.05078,   2661.22559,   2292.61523
    741,   9121.05078,   2706.76978,   2313.84717
    742,   9121.05078,   2752.31396,   2335.07886
    743,   9121.05078,   2797.85815,   2356.31079
    744,   9121.05078,   2843.40234,   2377.54272
    745,   9121.05078,   2177.09497,   2066.92236
    746,   9121.05078,   2219.82983,   2086.84448
    747,   9121.05078,   2262.56494,   2106.76685
    748,   9121.05078,    2305.2998,   2126.68896
    749,   9121.05078,   2348.03491,   2146.61133
    750,   9121.05078,   2390.76978,   2166.53369
    751,   9121.05078,   1569.67834,   1783.75562
    752,   9121.05078,   1616.73523,   1805.69263
    753,   9121.05078,   1663.79199,   1827.62976
    754,   9121.05078,   1710.84875,   1849.56677
    755,   9121.05078,   1757.90564,   1871.50378
    756,   9121.05078,    1804.9624,    1893.4408
    757,   9121.05078,   1852.01917,   1915.37781
    758,   9121.05078,   1899.07605,   1937.31482
    759,   9121.05078,   1946.13281,   1959.25183
    760,   9121.05078,   1993.18958,   1981.18896
    761,   9121.05078,   2040.24646,   2003.12598
    762,   9121.05078,   2087.30322,   2025.06299
    763,   9121.05078,   657.282532,   1358.41321
    764,   9121.05078,   702.826721,   1379.64514
    765,   9121.05078,   748.370911,   1400.87695
    766,   9121.05078,   793.915039,   1422.10876
    767,   9121.05078,   839.459229,    1443.3407
    768,   9121.05078,   885.003357,   1464.57251
    769,   9121.05078,   930.547546,   1485.80444
    770,   9121.05078,   976.091675,   1507.03625
    771,   9121.05078,   1021.63586,   1528.26819
    772,   9121.05078,   1067.18005,       1549.5
    773,   9121.05078,   1112.72412,   1570.73181
    774,   9121.05078,   1158.26831,   1591.96375
    775,   9121.05078,    1203.8125,   1613.19556
    776,   9121.05078,   1249.35669,   1634.42749
    777,   9121.05078,   1294.90076,    1655.6593
    778,   9121.05078,   1340.44495,   1676.89124
    779,   9121.05078,   1385.98914,   1698.12305
    780,   9121.05078,   1431.53333,   1719.35486
    781,   9121.05078,   1477.07739,   1740.58679
    782,   9121.05078,   47.0568008,   1073.93701
    783,   9121.05078,   94.1136017,   1095.87402
    784,   9121.05078,   141.170395,   1117.81104
    785,   9121.05078,   188.227203,   1139.74817
    786,   9121.05078,   235.283997,   1161.68518
    787,   9121.05078,    282.34079,   1183.62219
    788,   9121.05078,   329.397614,    1205.5592
    789,   9121.05078,   376.454407,   1227.49622
    790,   9121.05078,     423.5112,   1249.43323
    791,   9121.05078,   470.567993,   1271.37024
    792,   9121.05078,   517.624817,   1293.30737
    793,   9121.05078,    564.68158,   1315.24438
    794,   9121.05078,  -256.409821,    932.46637
    795,   9121.05078,   -213.67485,   952.388672
    796,   9121.05078,   -170.93988,   972.310913
    797,   9121.05078,   -128.20491,   992.233215
    798,   9121.05078,  -85.4699402,   1012.15546
    799,   9121.05078,  -42.7349701,   1032.07776
    800,   9121.05078,  -709.042236,   721.457336
    801,   9121.05078,  -663.498047,   742.689209
    802,   9121.05078,  -617.953918,   763.921082
    803,   9121.05078,  -572.409729,   785.152954
    804,   9121.05078,  -526.865601,   806.384827
    805,   9121.05078,  -481.321442,   827.616638
    806,   9121.05078,  -435.777283,   848.848511
    807,   9121.05078,  -390.233124,   870.080383
    808,   9121.05078,  -344.688965,   891.312256
    809,   4584.05127,   2479.04907,   2207.68774
    810,   4584.05127,   2524.59302,   2228.91968
    811,   4584.05127,   2570.13721,   2250.15137
    812,   4584.05127,    2615.6814,    2271.3833
    813,   4584.05127,   2661.22559,   2292.61523
    814,   4584.05127,   2706.76978,   2313.84717
    815,   4584.05127,   2752.31396,   2335.07886
    816,   4584.05127,   2797.85815,   2356.31079
    817,   4584.05127,   2843.40234,   2377.54272
    818,   4584.05127,   2177.09497,   2066.92236
    819,   4584.05127,   2219.82983,   2086.84448
    820,   4584.05127,   2262.56494,   2106.76685
    821,   4584.05127,    2305.2998,   2126.68896
    822,   4584.05127,   2348.03491,   2146.61133
    823,   4584.05127,   2390.76978,   2166.53369
    824,   4584.05127,   1569.67834,   1783.75562
    825,   4584.05127,   1616.73523,   1805.69263
    826,   4584.05127,   1663.79199,   1827.62976
    827,   4584.05127,   1710.84875,   1849.56677
    828,   4584.05127,   1757.90564,   1871.50378
    829,   4584.05127,    1804.9624,    1893.4408
    830,   4584.05127,   1852.01917,   1915.37781
    831,   4584.05127,   1899.07605,   1937.31482
    832,   4584.05127,   1946.13281,   1959.25183
    833,   4584.05127,   1993.18958,   1981.18896
    834,   4584.05127,   2040.24646,   2003.12598
    835,   4584.05127,   2087.30322,   2025.06299
    836,   4584.05127,   657.282532,   1358.41321
    837,   4584.05127,   702.826721,   1379.64514
    838,   4584.05127,   748.370911,   1400.87695
    839,   4584.05127,   793.915039,   1422.10876
    840,   4584.05127,   839.459229,    1443.3407
    841,   4584.05127,   885.003357,   1464.57251
    842,   4584.05127,   930.547546,   1485.80444
    843,   4584.05127,   976.091675,   1507.03625
    844,   4584.05127,   1021.63586,   1528.26819
    845,   4584.05127,   1067.18005,       1549.5
    846,   4584.05127,   1112.72412,   1570.73181
    847,   4584.05127,   1158.26831,   1591.96375
    848,   4584.05127,    1203.8125,   1613.19556
    849,   4584.05127,   1249.35669,   1634.42749
    850,   4584.05127,   1294.90076,    1655.6593
    851,   4584.05127,   1340.44495,   1676.89124
    852,   4584.05127,   1385.98914,   1698.12305
    853,   4584.05127,   1431.53333,   1719.35486
    854,   4584.05127,   1477.07739,   1740.58679
    855,   4584.05127,   47.0568008,   1073.93701
    856,   4584.05127,   94.1136017,   1095.87402
    857,   4584.05127,   141.170395,   1117.81104
    858,   4584.05127,   188.227203,   1139.74817
    859,   4584.05127,   235.283997,   1161.68518
    860,   4584.05127,    282.34079,   1183.62219
    861,   4584.05127,   329.397614,    1205.5592
    862,   4584.05127,   376.454407,   1227.49622
    863,   4584.05127,     423.5112,   1249.43323
    864,   4584.05127,   470.567993,   1271.37024
    865,   4584.05127,   517.624817,   1293.30737
    866,   4584.05127,    564.68158,   1315.24438
    867,   4584.05127,  -256.409821,    932.46637
    868,   4584.05127,   -213.67485,   952.388672
    869,   4584.05127,   -170.93988,   972.310913
    870,   4584.05127,   -128.20491,   992.233215
    871,   4584.05127,  -85.4699402,   1012.15546
    872,   4584.05127,  -42.7349701,   1032.07776
    873,   4584.05127,  -709.042236,   721.457336
    874,   4584.05127,  -663.498047,   742.689209
    875,   4584.05127,  -617.953918,   763.921082
    876,   4584.05127,  -572.409729,   785.152954
    877,   4584.05127,  -526.865601,   806.384827
    878,   4584.05127,  -481.321442,   827.616638
    879,   4584.05127,  -435.777283,   848.848511
    880,   4584.05127,  -390.233124,   870.080383
    881,   4584.05127,  -344.688965,   891.312256
    882,   47.0510559,   2177.09497,   2066.92236
    883,   47.0510559,   2219.82983,   2086.84448
    884,   47.0510559,   2262.56494,   2106.76685
    885,   47.0510559,    2305.2998,   2126.68896
    886,   47.0510559,   2348.03491,   2146.61133
    887,   47.0510559,   2390.76978,   2166.53369
    888,   47.0510559,   1569.67834,   1783.75562
    889,   47.0510559,   1616.73523,   1805.69263
    890,   47.0510559,   1663.79199,   1827.62976
    891,   47.0510559,   1710.84875,   1849.56677
    892,   47.0510559,   1757.90564,   1871.50378
    893,   47.0510559,    1804.9624,    1893.4408
    894,   47.0510559,   1852.01917,   1915.37781
    895,   47.0510559,   1899.07605,   1937.31482
    896,   47.0510559,   1946.13281,   1959.25183
    897,   47.0510559,   1993.18958,   1981.18896
    898,   47.0510559,   2040.24646,   2003.12598
    899,   47.0510559,   2087.30322,   2025.06299
    900,   47.0510559,   657.282532,   1358.41321
    901,   47.0510559,   702.826721,   1379.64514
    902,   47.0510559,   748.370911,   1400.87695
    903,   47.0510559,   793.915039,   1422.10876
    904,   47.0510559,   839.459229,    1443.3407
    905,   47.0510559,   885.003357,   1464.57251
    906,   47.0510559,   930.547546,   1485.80444
    907,   47.0510559,   976.091675,   1507.03625
    908,   47.0510559,   1021.63586,   1528.26819
    909,   47.0510559,   1067.18005,       1549.5
    910,   47.0510559,   1112.72412,   1570.73181
    911,   47.0510559,   1158.26831,   1591.96375
    912,   47.0510559,    1203.8125,   1613.19556
    913,   47.0510559,   1249.35669,   1634.42749
    914,   47.0510559,   1294.90076,    1655.6593
    915,   47.0510559,   1340.44495,   1676.89124
    916,   47.0510559,   1385.98914,   1698.12305
    917,   47.0510559,   1431.53333,   1719.35486
    918,   47.0510559,   1477.07739,   1740.58679
    919,   47.0510559,   47.0568008,   1073.93701
    920,   47.0510559,   94.1136017,   1095.87402
    921,   47.0510559,   141.170395,   1117.81104
    922,   47.0510559,   188.227203,   1139.74817
    923,   47.0510559,   235.283997,   1161.68518
    924,   47.0510559,    282.34079,   1183.62219
    925,   47.0510559,   329.397614,    1205.5592
    926,   47.0510559,   376.454407,   1227.49622
    927,   47.0510559,     423.5112,   1249.43323
    928,   47.0510559,   470.567993,   1271.37024
    929,   47.0510559,   517.624817,   1293.30737
    930,   47.0510559,    564.68158,   1315.24438
    931,   47.0510559,  -256.409821,    932.46637
    932,   47.0510559,   -213.67485,   952.388672
    933,   47.0510559,   -170.93988,   972.310913
    934,   47.0510559,   -128.20491,   992.233215
    935,   47.0510559,  -85.4699402,   1012.15546
    936,   47.0510559,  -42.7349701,   1032.07776
    937,   47.0510559,  -709.042236,   721.457336
    938,   47.0510559,  -663.498047,   742.689209
    939,   47.0510559,  -617.953918,   763.921082
    940,   47.0510559,  -572.409729,   785.152954
    941,   47.0510559,  -526.865601,   806.384827
    942,   47.0510559,  -481.321442,   827.616638
    943,   47.0510559,  -435.777283,   848.848511
    944,   47.0510559,  -390.233124,   870.080383
    945,   47.0510559,  -344.688965,   891.312256
    946,   17834.1543,   1522.62158,    1761.8186
    947,   17885.7109,   1522.62158,    1761.8186
    948,   17937.2676,   1522.62158,    1761.8186
    949,   17988.8242,   1522.62158,    1761.8186
    950,   18040.3809,   1522.62158,    1761.8186
    951,   18091.9375,   1522.62158,    1761.8186
    952,   18143.4941,   1522.62158,    1761.8186
    953,   17009.2441,   1522.62158,    1761.8186
    954,   17060.8008,   1522.62158,    1761.8186
    955,   17112.3574,   1522.62158,    1761.8186
    956,   17163.9141,   1522.62158,    1761.8186
    957,   17215.4707,   1522.62158,    1761.8186
    958,   17267.0293,   1522.62158,    1761.8186
    959,   17318.5859,   1522.62158,    1761.8186
    960,   17370.1426,   1522.62158,    1761.8186
    961,   17421.6992,   1522.62158,    1761.8186
    962,   17473.2559,   1522.62158,    1761.8186
    963,   17524.8125,   1522.62158,    1761.8186
    964,   17576.3691,   1522.62158,    1761.8186
    965,   17627.9258,   1522.62158,    1761.8186
    966,   17679.4824,   1522.62158,    1761.8186
    967,   17731.0391,   1522.62158,    1761.8186
    968,    16184.335,   1522.62158,    1761.8186
    969,   16235.8916,   1522.62158,    1761.8186
    970,   16287.4492,   1522.62158,    1761.8186
    971,   16339.0059,   1522.62158,    1761.8186
    972,   16390.5625,   1522.62158,    1761.8186
    973,   16442.1191,   1522.62158,    1761.8186
    974,   16493.6758,   1522.62158,    1761.8186
    975,   16545.2324,   1522.62158,    1761.8186
    976,   16596.7891,   1522.62158,    1761.8186
    977,   16648.3457,   1522.62158,    1761.8186
    978,   16699.9043,   1522.62158,    1761.8186
    979,   16751.4609,   1522.62158,    1761.8186
    980,   16803.0176,   1522.62158,    1761.8186
    981,   16854.5742,   1522.62158,    1761.8186
    982,   16906.1309,   1522.62158,    1761.8186
    983,   15359.4258,   1522.62158,    1761.8186
    984,   15410.9824,   1522.62158,    1761.8186
    985,     15462.54,   1522.62158,    1761.8186
    986,   15514.0967,   1522.62158,    1761.8186
    987,   15565.6533,   1522.62158,    1761.8186
    988,     15617.21,   1522.62158,    1761.8186
    989,   15668.7666,   1522.62158,    1761.8186
    990,   15720.3242,   1522.62158,    1761.8186
    991,   15771.8809,   1522.62158,    1761.8186
    992,   15823.4375,   1522.62158,    1761.8186
    993,   15874.9941,   1522.62158,    1761.8186
    994,   15926.5508,   1522.62158,    1761.8186
    995,   15978.1074,   1522.62158,    1761.8186
    996,    16029.665,   1522.62158,    1761.8186
    997,   16081.2217,   1522.62158,    1761.8186
    998,   14534.5166,   1522.62158,    1761.8186
    999,   14586.0742,   1522.62158,    1761.8186
   1000,   14637.6309,   1522.62158,    1761.8186
   1001,   14689.1875,   1522.62158,    1761.8186
   1002,   14740.7441,   1522.62158,    1761.8186
   1003,   14792.3008,   1522.62158,    1761.8186
   1004,   14843.8574,   1522.62158,    1761.8186
   1005,    14895.415,   1522.62158,    1761.8186
   1006,   14946.9717,   1522.62158,    1761.8186
   1007,   14998.5283,   1522.62158,    1761.8186
   1008,    15050.085,   1522.62158,    1761.8186
   1009,   15101.6416,   1522.62158,    1761.8186
   1010,   15153.1992,   1522.62158,    1761.8186
   1011,   15204.7559,   1522.62158,    1761.8186
   1012,   15256.3125,   1522.62158,    1761.8186
   1013,   13709.6074,   1522.62158,    1761.8186
   1014,    13761.165,   1522.62158,    1761.8186
   1015,   13812.7217,   1522.62158,    1761.8186
   1016,   13864.2783,   1522.62158,    1761.8186
   1017,    13915.835,   1522.62158,    1761.8186
   1018,   13967.3916,   1522.62158,    1761.8186
   1019,   14018.9492,   1522.62158,    1761.8186
   1020,   14070.5059,   1522.62158,    1761.8186
   1021,   14122.0625,   1522.62158,    1761.8186
   1022,   14173.6191,   1522.62158,    1761.8186
   1023,   14225.1758,   1522.62158,    1761.8186
   1024,   14276.7324,   1522.62158,    1761.8186
   1025,     14328.29,   1522.62158,    1761.8186
   1026,   14379.8467,   1522.62158,    1761.8186
   1027,   14431.4033,   1522.62158,    1761.8186
   1028,   12884.6992,   1522.62158,    1761.8186
   1029,   12936.2559,   1522.62158,    1761.8186
   1030,   12987.8125,   1522.62158,    1761.8186
   1031,   13039.3691,   1522.62158,    1761.8186
   1032,   13090.9258,   1522.62158,    1761.8186
   1033,   13142.4824,   1522.62158,    1761.8186
   1034,     13194.04,   1522.62158,    1761.8186
   1035,   13245.5967,   1522.62158,    1761.8186
   1036,   13297.1533,   1522.62158,    1761.8186
   1037,     13348.71,   1522.62158,    1761.8186
   1038,   13400.2666,   1522.62158,    1761.8186
   1039,   13451.8242,   1522.62158,    1761.8186
   1040,   13503.3809,   1522.62158,    1761.8186
   1041,   13554.9375,   1522.62158,    1761.8186
   1042,   13606.4941,   1522.62158,    1761.8186
   1043,     12059.79,   1522.62158,    1761.8186
   1044,   12111.3467,   1522.62158,    1761.8186
   1045,   12162.9033,   1522.62158,    1761.8186
   1046,     12214.46,   1522.62158,    1761.8186
   1047,   12266.0166,   1522.62158,    1761.8186
   1048,   12317.5742,   1522.62158,    1761.8186
   1049,   12369.1309,   1522.62158,    1761.8186
   1050,   12420.6875,   1522.62158,    1761.8186
   1051,   12472.2441,   1522.62158,    1761.8186
   1052,   12523.8008,   1522.62158,    1761.8186
   1053,   12575.3574,   1522.62158,    1761.8186
   1054,    12626.915,   1522.62158,    1761.8186
   1055,   12678.4717,   1522.62158,    1761.8186
   1056,   12730.0283,   1522.62158,    1761.8186
   1057,    12781.585,   1522.62158,    1761.8186
   1058,   11234.8809,   1522.62158,    1761.8186
   1059,   11286.4375,   1522.62158,    1761.8186
   1060,   11337.9941,   1522.62158,    1761.8186
   1061,   11389.5508,   1522.62158,    1761.8186
   1062,   11441.1074,   1522.62158,    1761.8186
   1063,    11492.665,   1522.62158,    1761.8186
   1064,   11544.2217,   1522.62158,    1761.8186
   1065,   11595.7783,   1522.62158,    1761.8186
   1066,    11647.335,   1522.62158,    1761.8186
   1067,   11698.8916,   1522.62158,    1761.8186
   1068,   11750.4492,   1522.62158,    1761.8186
   1069,   11802.0059,   1522.62158,    1761.8186
   1070,   11853.5625,   1522.62158,    1761.8186
   1071,   11905.1191,   1522.62158,    1761.8186
   1072,   11956.6758,   1522.62158,    1761.8186
   1073,   10409.9717,   1522.62158,    1761.8186
   1074,   10461.5283,   1522.62158,    1761.8186
   1075,    10513.085,   1522.62158,    1761.8186
   1076,   10564.6416,   1522.62158,    1761.8186
   1077,   10616.1992,   1522.62158,    1761.8186
   1078,   10667.7559,   1522.62158,    1761.8186
   1079,   10719.3125,   1522.62158,    1761.8186
   1080,   10770.8691,   1522.62158,    1761.8186
   1081,   10822.4258,   1522.62158,    1761.8186
   1082,   10873.9824,   1522.62158,    1761.8186
   1083,     10925.54,   1522.62158,    1761.8186
   1084,   10977.0967,   1522.62158,    1761.8186
   1085,   11028.6533,   1522.62158,    1761.8186
   1086,     11080.21,   1522.62158,    1761.8186
   1087,   11131.7666,   1522.62158,    1761.8186
   1088,    9585.0625,   1522.62158,    1761.8186
   1089,   9636.61914,   1522.62158,    1761.8186
   1090,   9688.17578,   1522.62158,    1761.8186
   1091,   9739.73242,   1522.62158,    1761.8186
   1092,   9791.29004,   1522.62158,    1761.8186
   1093,   9842.84668,   1522.62158,    1761.8186
   1094,   9894.40332,   1522.62158,    1761.8186
   1095,   9945.95996,   1522.62158,    1761.8186
   1096,    9997.5166,   1522.62158,    1761.8186
   1097,   10049.0742,   1522.62158,    1761.8186
   1098,   10100.6309,   1522.62158,    1761.8186
   1099,   10152.1875,   1522.62158,    1761.8186
   1100,   10203.7441,   1522.62158,    1761.8186
   1101,   10255.3008,   1522.62158,    1761.8186
   1102,   10306.8574,   1522.62158,    1761.8186
   1103,   9172.60742,   1522.62158,    1761.8186
   1104,   9224.16504,   1522.62158,    1761.8186
   1105,   9275.72168,   1522.62158,    1761.8186
   1106,   9327.27832,   1522.62158,    1761.8186
   1107,   9378.83496,   1522.62158,    1761.8186
   1108,    9430.3916,   1522.62158,    1761.8186
   1109,   9481.94922,   1522.62158,    1761.8186
   1110,   8760.15332,   1522.62158,    1761.8186
   1111,   8811.70996,   1522.62158,    1761.8186
   1112,    8863.2666,   1522.62158,    1761.8186
   1113,   8914.82422,   1522.62158,    1761.8186
   1114,   8966.38086,   1522.62158,    1761.8186
   1115,    9017.9375,   1522.62158,    1761.8186
   1116,   9069.49414,   1522.62158,    1761.8186
   1117,   7935.24414,   1522.62158,    1761.8186
   1118,   7986.80127,   1522.62158,    1761.8186
   1119,   8038.35791,   1522.62158,    1761.8186
   1120,   8089.91455,   1522.62158,    1761.8186
   1121,   8141.47168,   1522.62158,    1761.8186
   1122,   8193.02832,   1522.62158,    1761.8186
   1123,   8244.58496,   1522.62158,    1761.8186
   1124,    8296.1416,   1522.62158,    1761.8186
   1125,   8347.69922,   1522.62158,    1761.8186
   1126,   8399.25586,   1522.62158,    1761.8186
   1127,    8450.8125,   1522.62158,    1761.8186
   1128,   8502.36914,   1522.62158,    1761.8186
   1129,   8553.92578,   1522.62158,    1761.8186
   1130,   8605.48242,   1522.62158,    1761.8186
   1131,   8657.04004,   1522.62158,    1761.8186
   1132,   7110.33496,   1522.62158,    1761.8186
   1133,   7161.89209,   1522.62158,    1761.8186
   1134,   7213.44873,   1522.62158,    1761.8186
   1135,   7265.00537,   1522.62158,    1761.8186
   1136,    7316.5625,   1522.62158,    1761.8186
   1137,   7368.11914,   1522.62158,    1761.8186
   1138,   7419.67627,   1522.62158,    1761.8186
   1139,   7471.23291,   1522.62158,    1761.8186
   1140,   7522.78955,   1522.62158,    1761.8186
   1141,   7574.34668,   1522.62158,    1761.8186
   1142,   7625.90332,   1522.62158,    1761.8186
   1143,   7677.45996,   1522.62158,    1761.8186
   1144,   7729.01709,   1522.62158,    1761.8186
   1145,   7780.57373,   1522.62158,    1761.8186
   1146,   7832.13037,   1522.62158,    1761.8186
   1147,   6285.42627,   1522.62158,    1761.8186
   1148,   6336.98291,   1522.62158,    1761.8186
   1149,   6388.53955,   1522.62158,    1761.8186
   1150,   6440.09668,   1522.62158,    1761.8186
   1151,   6491.65332,   1522.62158,    1761.8186
   1152,   6543.20996,   1522.62158,    1761.8186
   1153,   6594.76709,   1522.62158,    1761.8186
   1154,   6646.32373,   1522.62158,    1761.8186
   1155,   6697.88037,   1522.62158,    1761.8186
   1156,    6749.4375,   1522.62158,    1761.8186
   1157,   6800.99414,   1522.62158,    1761.8186
   1158,   6852.55127,   1522.62158,    1761.8186
   1159,   6904.10791,   1522.62158,    1761.8186
   1160,   6955.66455,   1522.62158,    1761.8186
   1161,   7007.22168,   1522.62158,    1761.8186
   1162,   5460.51709,   1522.62158,    1761.8186
   1163,   5512.07373,   1522.62158,    1761.8186
   1164,   5563.63037,   1522.62158,    1761.8186
   1165,    5615.1875,   1522.62158,    1761.8186
   1166,   5666.74414,   1522.62158,    1761.8186
   1167,   5718.30127,   1522.62158,    1761.8186
   1168,   5769.85791,   1522.62158,    1761.8186
   1169,   5821.41455,   1522.62158,    1761.8186
   1170,   5872.97168,   1522.62158,    1761.8186
   1171,   5924.52832,   1522.62158,    1761.8186
   1172,   5976.08496,   1522.62158,    1761.8186
   1173,   6027.64209,   1522.62158,    1761.8186
   1174,   6079.19873,   1522.62158,    1761.8186
   1175,   6130.75537,   1522.62158,    1761.8186
   1176,    6182.3125,   1522.62158,    1761.8186
   1177,   4635.60791,   1522.62158,    1761.8186
   1178,   4687.16455,   1522.62158,    1761.8186
   1179,   4738.72168,   1522.62158,    1761.8186
   1180,   4790.27832,   1522.62158,    1761.8186
   1181,   4841.83496,   1522.62158,    1761.8186
   1182,   4893.39209,   1522.62158,    1761.8186
   1183,   4944.94873,   1522.62158,    1761.8186
   1184,   4996.50537,   1522.62158,    1761.8186
   1185,    5048.0625,   1522.62158,    1761.8186
   1186,   5099.61914,   1522.62158,    1761.8186
   1187,   5151.17627,   1522.62158,    1761.8186
   1188,   5202.73291,   1522.62158,    1761.8186
   1189,   5254.28955,   1522.62158,    1761.8186
   1190,   5305.84668,   1522.62158,    1761.8186
   1191,   5357.40332,   1522.62158,    1761.8186
   1192,   3810.69873,   1522.62158,    1761.8186
   1193,   3862.25562,   1522.62158,    1761.8186
   1194,    3913.8125,   1522.62158,    1761.8186
   1195,   3965.36914,   1522.62158,    1761.8186
   1196,   4016.92603,   1522.62158,    1761.8186
   1197,   4068.48291,   1522.62158,    1761.8186
   1198,   4120.03955,   1522.62158,    1761.8186
   1199,   4171.59668,   1522.62158,    1761.8186
   1200,   4223.15332,   1522.62158,    1761.8186
   1201,   4274.70996,   1522.62158,    1761.8186
   1202,   4326.26709,   1522.62158,    1761.8186
   1203,   4377.82373,   1522.62158,    1761.8186
   1204,   4429.38037,   1522.62158,    1761.8186
   1205,    4480.9375,   1522.62158,    1761.8186
   1206,   4532.49414,   1522.62158,    1761.8186
   1207,   2985.78979,   1522.62158,    1761.8186
   1208,   3037.34644,   1522.62158,    1761.8186
   1209,   3088.90332,   1522.62158,    1761.8186
   1210,   3140.46021,   1522.62158,    1761.8186
   1211,   3192.01685,   1522.62158,    1761.8186
   1212,   3243.57373,   1522.62158,    1761.8186
   1213,   3295.13062,   1522.62158,    1761.8186
   1214,    3346.6875,   1522.62158,    1761.8186
   1215,   3398.24414,   1522.62158,    1761.8186
   1216,   3449.80103,   1522.62158,    1761.8186
   1217,   3501.35791,   1522.62158,    1761.8186
   1218,   3552.91479,   1522.62158,    1761.8186
   1219,   3604.47144,   1522.62158,    1761.8186
   1220,   3656.02832,   1522.62158,    1761.8186
   1221,   3707.58521,   1522.62158,    1761.8186
   1222,   2160.88062,   1522.62158,    1761.8186
   1223,    2212.4375,   1522.62158,    1761.8186
   1224,   2263.99414,   1522.62158,    1761.8186
   1225,   2315.55103,   1522.62158,    1761.8186
   1226,   2367.10791,   1522.62158,    1761.8186
   1227,   2418.66479,   1522.62158,    1761.8186
   1228,   2470.22144,   1522.62158,    1761.8186
   1229,   2521.77832,   1522.62158,    1761.8186
   1230,   2573.33521,   1522.62158,    1761.8186
   1231,   2624.89185,   1522.62158,    1761.8186
   1232,   2676.44873,   1522.62158,    1761.8186
   1233,   2728.00562,   1522.62158,    1761.8186
   1234,    2779.5625,   1522.62158,    1761.8186
   1235,   2831.11914,   1522.62158,    1761.8186
   1236,   2882.67603,   1522.62158,    1761.8186
   1237,   1335.97156,   1522.62158,    1761.8186
   1238,   1387.52832,   1522.62158,    1761.8186
   1239,   1439.08521,   1522.62158,    1761.8186
   1240,   1490.64197,   1522.62158,    1761.8186
   1241,   1542.19873,   1522.62158,    1761.8186
   1242,   1593.75562,   1522.62158,    1761.8186
   1243,   1645.31238,   1522.62158,    1761.8186
   1244,   1696.86926,   1522.62158,    1761.8186
   1245,   1748.42603,   1522.62158,    1761.8186
   1246,   1799.98291,   1522.62158,    1761.8186
   1247,   1851.53967,   1522.62158,    1761.8186
   1248,   1903.09656,   1522.62158,    1761.8186
   1249,   1954.65332,   1522.62158,    1761.8186
   1250,   2006.21021,   1522.62158,    1761.8186
   1251,   2057.76685,   1522.62158,    1761.8186
   1252,   511.062408,   1522.62158,    1761.8186
   1253,   562.619263,   1522.62158,    1761.8186
   1254,   614.176086,   1522.62158,    1761.8186
   1255,   665.732849,   1522.62158,    1761.8186
   1256,   717.289673,   1522.62158,    1761.8186
   1257,   768.846497,   1522.62158,    1761.8186
   1258,    820.40332,   1522.62158,    1761.8186
   1259,   871.960144,   1522.62158,    1761.8186
   1260,   923.516968,   1522.62158,    1761.8186
   1261,   975.073792,   1522.62158,    1761.8186
   1262,   1026.63062,   1522.62158,    1761.8186
   1263,   1078.18738,   1522.62158,    1761.8186
   1264,   1129.74426,   1522.62158,    1761.8186
   1265,   1181.30103,   1522.62158,    1761.8186
   1266,   1232.85791,   1522.62158,    1761.8186
   1267,    98.607872,   1522.62158,    1761.8186
   1268,   150.164688,   1522.62158,    1761.8186
   1269,   201.721512,   1522.62158,    1761.8186
   1270,   253.278336,   1522.62158,    1761.8186
   1271,   304.835144,   1522.62158,    1761.8186
   1272,   356.391968,   1522.62158,    1761.8186
   1273,   407.948792,   1522.62158,    1761.8186
   1274,   17834.1543,   611.738403,    1337.1814
   1275,   17885.7109,   611.738403,    1337.1814
   1276,   17937.2676,   611.738403,    1337.1814
   1277,   17988.8242,   611.738403,    1337.1814
   1278,   18040.3809,   611.738403,    1337.1814
   1279,   18091.9375,   611.738403,    1337.1814
   1280,   18143.4941,   611.738403,    1337.1814
   1281,   17009.2441,   611.738403,    1337.1814
   1282,   17060.8008,   611.738403,    1337.1814
   1283,   17112.3574,   611.738403,    1337.1814
   1284,   17163.9141,   611.738403,    1337.1814
   1285,   17215.4707,   611.738403,    1337.1814
   1286,   17267.0293,   611.738403,    1337.1814
   1287,   17318.5859,   611.738403,    1337.1814
   1288,   17370.1426,   611.738403,    1337.1814
   1289,   17421.6992,   611.738403,    1337.1814
   1290,   17473.2559,   611.738403,    1337.1814
   1291,   17524.8125,   611.738403,    1337.1814
   1292,   17576.3691,   611.738403,    1337.1814
   1293,   17627.9258,   611.738403,    1337.1814
   1294,   17679.4824,   611.738403,    1337.1814
   1295,   17731.0391,   611.738403,    1337.1814
   1296,    16184.335,   611.738403,    1337.1814
   1297,   16235.8916,   611.738403,    1337.1814
   1298,   16287.4492,   611.738403,    1337.1814
   1299,   16339.0059,   611.738403,    1337.1814
   1300,   16390.5625,   611.738403,    1337.1814
   1301,   16442.1191,   611.738403,    1337.1814
   1302,   16493.6758,   611.738403,    1337.1814
   1303,   16545.2324,   611.738403,    1337.1814
   1304,   16596.7891,   611.738403,    1337.1814
   1305,   16648.3457,   611.738403,    1337.1814
   1306,   16699.9043,   611.738403,    1337.1814
   1307,   16751.4609,   611.738403,    1337.1814
   1308,   16803.0176,   611.738403,    1337.1814
   1309,   16854.5742,   611.738403,    1337.1814
   1310,   16906.1309,   611.738403,    1337.1814
   1311,   15359.4258,   611.738403,    1337.1814
   1312,   15410.9824,   611.738403,    1337.1814
   1313,     15462.54,   611.738403,    1337.1814
   1314,   15514.0967,   611.738403,    1337.1814
   1315,   15565.6533,   611.738403,    1337.1814
   1316,     15617.21,   611.738403,    1337.1814
   1317,   15668.7666,   611.738403,    1337.1814
   1318,   15720.3242,   611.738403,    1337.1814
   1319,   15771.8809,   611.738403,    1337.1814
   1320,   15823.4375,   611.738403,    1337.1814
   1321,   15874.9941,   611.738403,    1337.1814
   1322,   15926.5508,   611.738403,    1337.1814
   1323,   15978.1074,   611.738403,    1337.1814
   1324,    16029.665,   611.738403,    1337.1814
   1325,   16081.2217,   611.738403,    1337.1814
   1326,   14534.5166,   611.738403,    1337.1814
   1327,   14586.0742,   611.738403,    1337.1814
   1328,   14637.6309,   611.738403,    1337.1814
   1329,   14689.1875,   611.738403,    1337.1814
   1330,   14740.7441,   611.738403,    1337.1814
   1331,   14792.3008,   611.738403,    1337.1814
   1332,   14843.8574,   611.738403,    1337.1814
   1333,    14895.415,   611.738403,    1337.1814
   1334,   14946.9717,   611.738403,    1337.1814
   1335,   14998.5283,   611.738403,    1337.1814
   1336,    15050.085,   611.738403,    1337.1814
   1337,   15101.6416,   611.738403,    1337.1814
   1338,   15153.1992,   611.738403,    1337.1814
   1339,   15204.7559,   611.738403,    1337.1814
   1340,   15256.3125,   611.738403,    1337.1814
   1341,   13709.6074,   611.738403,    1337.1814
   1342,    13761.165,   611.738403,    1337.1814
   1343,   13812.7217,   611.738403,    1337.1814
   1344,   13864.2783,   611.738403,    1337.1814
   1345,    13915.835,   611.738403,    1337.1814
   1346,   13967.3916,   611.738403,    1337.1814
   1347,   14018.9492,   611.738403,    1337.1814
   1348,   14070.5059,   611.738403,    1337.1814
   1349,   14122.0625,   611.738403,    1337.1814
   1350,   14173.6191,   611.738403,    1337.1814
   1351,   14225.1758,   611.738403,    1337.1814
   1352,   14276.7324,   611.738403,    1337.1814
   1353,     14328.29,   611.738403,    1337.1814
   1354,   14379.8467,   611.738403,    1337.1814
   1355,   14431.4033,   611.738403,    1337.1814
   1356,   12884.6992,   611.738403,    1337.1814
   1357,   12936.2559,   611.738403,    1337.1814
   1358,   12987.8125,   611.738403,    1337.1814
   1359,   13039.3691,   611.738403,    1337.1814
   1360,   13090.9258,   611.738403,    1337.1814
   1361,   13142.4824,   611.738403,    1337.1814
   1362,     13194.04,   611.738403,    1337.1814
   1363,   13245.5967,   611.738403,    1337.1814
   1364,   13297.1533,   611.738403,    1337.1814
   1365,     13348.71,   611.738403,    1337.1814
   1366,   13400.2666,   611.738403,    1337.1814
   1367,   13451.8242,   611.738403,    1337.1814
   1368,   13503.3809,   611.738403,    1337.1814
   1369,   13554.9375,   611.738403,    1337.1814
   1370,   13606.4941,   611.738403,    1337.1814
   1371,     12059.79,   611.738403,    1337.1814
   1372,   12111.3467,   611.738403,    1337.1814
   1373,   12162.9033,   611.738403,    1337.1814
   1374,     12214.46,   611.738403,    1337.1814
   1375,   12266.0166,   611.738403,    1337.1814
   1376,   12317.5742,   611.738403,    1337.1814
   1377,   12369.1309,   611.738403,    1337.1814
   1378,   12420.6875,   611.738403,    1337.1814
   1379,   12472.2441,   611.738403,    1337.1814
   1380,   12523.8008,   611.738403,    1337.1814
   1381,   12575.3574,   611.738403,    1337.1814
   1382,    12626.915,   611.738403,    1337.1814
   1383,   12678.4717,   611.738403,    1337.1814
   1384,   12730.0283,   611.738403,    1337.1814
   1385,    12781.585,   611.738403,    1337.1814
   1386,   11234.8809,   611.738403,    1337.1814
   1387,   11286.4375,   611.738403,    1337.1814
   1388,   11337.9941,   611.738403,    1337.1814
   1389,   11389.5508,   611.738403,    1337.1814
   1390,   11441.1074,   611.738403,    1337.1814
   1391,    11492.665,   611.738403,    1337.1814
   1392,   11544.2217,   611.738403,    1337.1814
   1393,   11595.7783,   611.738403,    1337.1814
   1394,    11647.335,   611.738403,    1337.1814
   1395,   11698.8916,   611.738403,    1337.1814
   1396,   11750.4492,   611.738403,    1337.1814
   1397,   11802.0059,   611.738403,    1337.1814
   1398,   11853.5625,   611.738403,    1337.1814
   1399,   11905.1191,   611.738403,    1337.1814
   1400,   11956.6758,   611.738403,    1337.1814
   1401,   10409.9717,   611.738403,    1337.1814
   1402,   10461.5283,   611.738403,    1337.1814
   1403,    10513.085,   611.738403,    1337.1814
   1404,   10564.6416,   611.738403,    1337.1814
   1405,   10616.1992,   611.738403,    1337.1814
   1406,   10667.7559,   611.738403,    1337.1814
   1407,   10719.3125,   611.738403,    1337.1814
   1408,   10770.8691,   611.738403,    1337.1814
   1409,   10822.4258,   611.738403,    1337.1814
   1410,   10873.9824,   611.738403,    1337.1814
   1411,     10925.54,   611.738403,    1337.1814
   1412,   10977.0967,   611.738403,    1337.1814
   1413,   11028.6533,   611.738403,    1337.1814
   1414,     11080.21,   611.738403,    1337.1814
   1415,   11131.7666,   611.738403,    1337.1814
   1416,    9585.0625,   611.738403,    1337.1814
   1417,   9636.61914,   611.738403,    1337.1814
   1418,   9688.17578,   611.738403,    1337.1814
   1419,   9739.73242,   611.738403,    1337.1814
   1420,   9791.29004,   611.738403,    1337.1814
   1421,   9842.84668,   611.738403,    1337.1814
   1422,   9894.40332,   611.738403,    1337.1814
   1423,   9945.95996,   611.738403,    1337.1814
   1424,    9997.5166,   611.738403,    1337.1814
   1425,   10049.0742,   611.738403,    1337.1814
   1426,   10100.6309,   611.738403,    1337.1814
   1427,   10152.1875,   611.738403,    1337.1814
   1428,   10203.7441,   611.738403,    1337.1814
   1429,   10255.3008,   611.738403,    1337.1814
   1430,   10306.8574,   611.738403,    1337.1814
   1431,   9172.60742,   611.738403,    1337.1814
   1432,   9224.16504,   611.738403,    1337.1814
   1433,   9275.72168,   611.738403,    1337.1814
   1434,   9327.27832,   611.738403,    1337.1814
   1435,   9378.83496,   611.738403,    1337.1814
   1436,    9430.3916,   611.738403,    1337.1814
   1437,   9481.94922,   611.738403,    1337.1814
   1438,   8760.15332,   611.738403,    1337.1814
   1439,   8811.70996,   611.738403,    1337.1814
   1440,    8863.2666,   611.738403,    1337.1814
   1441,   8914.82422,   611.738403,    1337.1814
   1442,   8966.38086,   611.738403,    1337.1814
   1443,    9017.9375,   611.738403,    1337.1814
   1444,   9069.49414,   611.738403,    1337.1814
   1445,   7935.24414,   611.738403,    1337.1814
   1446,   7986.80127,   611.738403,    1337.1814
   1447,   8038.35791,   611.738403,    1337.1814
   1448,   8089.91455,   611.738403,    1337.1814
   1449,   8141.47168,   611.738403,    1337.1814
   1450,   8193.02832,   611.738403,    1337.1814
   1451,   8244.58496,   611.738403,    1337.1814
   1452,    8296.1416,   611.738403,    1337.1814
   1453,   8347.69922,   611.738403,    1337.1814
   1454,   8399.25586,   611.738403,    1337.1814
   1455,    8450.8125,   611.738403,    1337.1814
   1456,   8502.36914,   611.738403,    1337.1814
   1457,   8553.92578,   611.738403,    1337.1814
   1458,   8605.48242,   611.738403,    1337.1814
   1459,   8657.04004,   611.738403,    1337.1814
   1460,   7110.33496,   611.738403,    1337.1814
   1461,   7161.89209,   611.738403,    1337.1814
   1462,   7213.44873,   611.738403,    1337.1814
   1463,   7265.00537,   611.738403,    1337.1814
   1464,    7316.5625,   611.738403,    1337.1814
   1465,   7368.11914,   611.738403,    1337.1814
   1466,   7419.67627,   611.738403,    1337.1814
   1467,   7471.23291,   611.738403,    1337.1814
   1468,   7522.78955,   611.738403,    1337.1814
   1469,   7574.34668,   611.738403,    1337.1814
   1470,   7625.90332,   611.738403,    1337.1814
   1471,   7677.45996,   611.738403,    1337.1814
   1472,   7729.01709,   611.738403,    1337.1814
   1473,   7780.57373,   611.738403,    1337.1814
   1474,   7832.13037,   611.738403,    1337.1814
   1475,   6285.42627,   611.738403,    1337.1814
   1476,   6336.98291,   611.738403,    1337.1814
   1477,   6388.53955,   611.738403,    1337.1814
   1478,   6440.09668,   611.738403,    1337.1814
   1479,   6491.65332,   611.738403,    1337.1814
   1480,   6543.20996,   611.738403,    1337.1814
   1481,   6594.76709,   611.738403,    1337.1814
   1482,   6646.32373,   611.738403,    1337.1814
   1483,   6697.88037,   611.738403,    1337.1814
   1484,    6749.4375,   611.738403,    1337.1814
   1485,   6800.99414,   611.738403,    1337.1814
   1486,   6852.55127,   611.738403,    1337.1814
   1487,   6904.10791,   611.738403,    1337.1814
   1488,   6955.66455,   611.738403,    1337.1814
   1489,   7007.22168,   611.738403,    1337.1814
   1490,   5460.51709,   611.738403,    1337.1814
   1491,   5512.07373,   611.738403,    1337.1814
   1492,   5563.63037,   611.738403,    1337.1814
   1493,    5615.1875,   611.738403,    1337.1814
   1494,   5666.74414,   611.738403,    1337.1814
   1495,   5718.30127,   611.738403,    1337.1814
   1496,   5769.85791,   611.738403,    1337.1814
   1497,   5821.41455,   611.738403,    1337.1814
   1498,   5872.97168,   611.738403,    1337.1814
   1499,   5924.52832,   611.738403,    1337.1814
   1500,   5976.08496,   611.738403,    1337.1814
   1501,   6027.64209,   611.738403,    1337.1814
   1502,   6079.19873,   611.738403,    1337.1814
   1503,   6130.75537,   611.738403,    1337.1814
   1504,    6182.3125,   611.738403,    1337.1814
   1505,   4635.60791,   611.738403,    1337.1814
   1506,   4687.16455,   611.738403,    1337.1814
   1507,   4738.72168,   611.738403,    1337.1814
   1508,   4790.27832,   611.738403,    1337.1814
   1509,   4841.83496,   611.738403,    1337.1814
   1510,   4893.39209,   611.738403,    1337.1814
   1511,   4944.94873,   611.738403,    1337.1814
   1512,   4996.50537,   611.738403,    1337.1814
   1513,    5048.0625,   611.738403,    1337.1814
   1514,   5099.61914,   611.738403,    1337.1814
   1515,   5151.17627,   611.738403,    1337.1814
   1516,   5202.73291,   611.738403,    1337.1814
   1517,   5254.28955,   611.738403,    1337.1814
   1518,   5305.84668,   611.738403,    1337.1814
   1519,   5357.40332,   611.738403,    1337.1814
   1520,   3810.69873,   611.738403,    1337.1814
   1521,   3862.25562,   611.738403,    1337.1814
   1522,    3913.8125,   611.738403,    1337.1814
   1523,   3965.36914,   611.738403,    1337.1814
   1524,   4016.92603,   611.738403,    1337.1814
   1525,   4068.48291,   611.738403,    1337.1814
   1526,   4120.03955,   611.738403,    1337.1814
   1527,   4171.59668,   611.738403,    1337.1814
   1528,   4223.15332,   611.738403,    1337.1814
   1529,   4274.70996,   611.738403,    1337.1814
   1530,   4326.26709,   611.738403,    1337.1814
   1531,   4377.82373,   611.738403,    1337.1814
   1532,   4429.38037,   611.738403,    1337.1814
   1533,    4480.9375,   611.738403,    1337.1814
   1534,   4532.49414,   611.738403,    1337.1814
   1535,   2985.78979,   611.738403,    1337.1814
   1536,   3037.34644,   611.738403,    1337.1814
   1537,   3088.90332,   611.738403,    1337.1814
   1538,   3140.46021,   611.738403,    1337.1814
   1539,   3192.01685,   611.738403,    1337.1814
   1540,   3243.57373,   611.738403,    1337.1814
   1541,   3295.13062,   611.738403,    1337.1814
   1542,    3346.6875,   611.738403,    1337.1814
   1543,   3398.24414,   611.738403,    1337.1814
   1544,   3449.80103,   611.738403,    1337.1814
   1545,   3501.35791,   611.738403,    1337.1814
   1546,   3552.91479,   611.738403,    1337.1814
   1547,   3604.47144,   611.738403,    1337.1814
   1548,   3656.02832,   611.738403,    1337.1814
   1549,   3707.58521,   611.738403,    1337.1814
   1550,   2160.88062,   611.738403,    1337.1814
   1551,    2212.4375,   611.738403,    1337.1814
   1552,   2263.99414,   611.738403,    1337.1814
   1553,   2315.55103,   611.738403,    1337.1814
   1554,   2367.10791,   611.738403,    1337.1814
   1555,   2418.66479,   611.738403,    1337.1814
   1556,   2470.22144,   611.738403,    1337.1814
   1557,   2521.77832,   611.738403,    1337.1814
   1558,   2573.33521,   611.738403,    1337.1814
   1559,   2624.89185,   611.738403,    1337.1814
   1560,   2676.44873,   611.738403,    1337.1814
   1561,   2728.00562,   611.738403,    1337.1814
   1562,    2779.5625,   611.738403,    1337.1814
   1563,   2831.11914,   611.738403,    1337.1814
   1564,   2882.67603,   611.738403,    1337.1814
   1565,   1335.97156,   611.738403,    1337.1814
   1566,   1387.52832,   611.738403,    1337.1814
   1567,   1439.08521,   611.738403,    1337.1814
   1568,   1490.64197,   611.738403,    1337.1814
   1569,   1542.19873,   611.738403,    1337.1814
   1570,   1593.75562,   611.738403,    1337.1814
   1571,   1645.31238,   611.738403,    1337.1814
   1572,   1696.86926,   611.738403,    1337.1814
   1573,   1748.42603,   611.738403,    1337.1814
   1574,   1799.98291,   611.738403,    1337.1814
   1575,   1851.53967,   611.738403,    1337.1814
   1576,   1903.09656,   611.738403,    1337.1814
   1577,   1954.65332,   611.738403,    1337.1814
   1578,   2006.21021,   611.738403,    1337.1814
   1579,   2057.76685,   611.738403,    1337.1814
   1580,   511.062408,   611.738403,    1337.1814
   1581,   562.619263,   611.738403,    1337.1814
   1582,   614.176086,   611.738403,    1337.1814
   1583,   665.732849,   611.738403,    1337.1814
   1584,   717.289673,   611.738403,    1337.1814
   1585,   768.846497,   611.738403,    1337.1814
   1586,    820.40332,   611.738403,    1337.1814
   1587,   871.960144,   611.738403,    1337.1814
   1588,   923.516968,   611.738403,    1337.1814
   1589,   975.073792,   611.738403,    1337.1814
   1590,   1026.63062,   611.738403,    1337.1814
   1591,   1078.18738,   611.738403,    1337.1814
   1592,   1129.74426,   611.738403,    1337.1814
   1593,   1181.30103,   611.738403,    1337.1814
   1594,   1232.85791,   611.738403,    1337.1814
   1595,    98.607872,   611.738403,    1337.1814
   1596,   150.164688,   611.738403,    1337.1814
   1597,   201.721512,   611.738403,    1337.1814
   1598,   253.278336,   611.738403,    1337.1814
   1599,   304.835144,   611.738403,    1337.1814
   1600,   356.391968,   611.738403,    1337.1814
   1601,   407.948792,   611.738403,    1337.1814
   1602,   17834.1543,  -299.144806,   912.544128
   1603,   17885.7109,  -299.144806,   912.544128
   1604,   17937.2676,  -299.144806,   912.544128
   1605,   17988.8242,  -299.144806,   912.544128
   1606,   18040.3809,  -299.144806,   912.544128
   1607,   18091.9375,  -299.144806,   912.544128
   1608,   18143.4941,  -299.144806,   912.544128
   1609,   17009.2441,  -299.144806,   912.544128
   1610,   17060.8008,  -299.144806,   912.544128
   1611,   17112.3574,  -299.144806,   912.544128
   1612,   17163.9141,  -299.144806,   912.544128
   1613,   17215.4707,  -299.144806,   912.544128
   1614,   17267.0293,  -299.144806,   912.544128
   1615,   17318.5859,  -299.144806,   912.544128
   1616,   17370.1426,  -299.144806,   912.544128
   1617,   17421.6992,  -299.144806,   912.544128
   1618,   17473.2559,  -299.144806,   912.544128
   1619,   17524.8125,  -299.144806,   912.544128
   1620,   17576.3691,  -299.144806,   912.544128
   1621,   17627.9258,  -299.144806,   912.544128
   1622,   17679.4824,  -299.144806,   912.544128
   1623,   17731.0391,  -299.144806,   912.544128
   1624,    16184.335,  -299.144806,   912.544128
   1625,   16235.8916,  -299.144806,   912.544128
   1626,   16287.4492,  -299.144806,   912.544128
   1627,   16339.0059,  -299.144806,   912.544128
   1628,   16390.5625,  -299.144806,   912.544128
   1629,   16442.1191,  -299.144806,   912.544128
   1630,   16493.6758,  -299.144806,   912.544128
   1631,   16545.2324,  -299.144806,   912.544128
   1632,   16596.7891,  -299.144806,   912.544128
   1633,   16648.3457,  -299.144806,   912.544128
   1634,   16699.9043,  -299.144806,   912.544128
   1635,   16751.4609,  -299.144806,   912.544128
   1636,   16803.0176,  -299.144806,   912.544128
   1637,   16854.5742,  -299.144806,   912.544128
   1638,   16906.1309,  -299.144806,   912.544128
   1639,   15359.4258,  -299.144806,   912.544128
   1640,   15410.9824,  -299.144806,   912.544128
   1641,     15462.54,  -299.144806,   912.544128
   1642,   15514.0967,  -299.144806,   912.544128
   1643,   15565.6533,  -299.144806,   912.544128
   1644,     15617.21,  -299.144806,   912.544128
   1645,   15668.7666,  -299.144806,   912.544128
   1646,   15720.3242,  -299.144806,   912.544128
   1647,   15771.8809,  -299.144806,   912.544128
   1648,   15823.4375,  -299.144806,   912.544128
   1649,   15874.9941,  -299.144806,   912.544128
   1650,   15926.5508,  -299.144806,   912.544128
   1651,   15978.1074,  -299.144806,   912.544128
   1652,    16029.665,  -299.144806,   912.544128
   1653,   16081.2217,  -299.144806,   912.544128
   1654,   14534.5166,  -299.144806,   912.544128
   1655,   14586.0742,  -299.144806,   912.544128
   1656,   14637.6309,  -299.144806,   912.544128
   1657,   14689.1875,  -299.144806,   912.544128
   1658,   14740.7441,  -299.144806,   912.544128
   1659,   14792.3008,  -299.144806,   912.544128
   1660,   14843.8574,  -299.144806,   912.544128
   1661,    14895.415,  -299.144806,   912.544128
   1662,   14946.9717,  -299.144806,   912.544128
   1663,   14998.5283,  -299.144806,   912.544128
   1664,    15050.085,  -299.144806,   912.544128
   1665,   15101.6416,  -299.144806,   912.544128
   1666,   15153.1992,  -299.144806,   912.544128
   1667,   15204.7559,  -299.144806,   912.544128
   1668,   15256.3125,  -299.144806,   912.544128
   1669,   13709.6074,  -299.144806,   912.544128
   1670,    13761.165,  -299.144806,   912.544128
   1671,   13812.7217,  -299.144806,   912.544128
   1672,   13864.2783,  -299.144806,   912.544128
   1673,    13915.835,  -299.144806,   912.544128
   1674,   13967.3916,  -299.144806,   912.544128
   1675,   14018.9492,  -299.144806,   912.544128
   1676,   14070.5059,  -299.144806,   912.544128
   1677,   14122.0625,  -299.144806,   912.544128
   1678,   14173.6191,  -299.144806,   912.544128
   1679,   14225.1758,  -299.144806,   912.544128
   1680,   14276.7324,  -299.144806,   912.544128
   1681,     14328.29,  -299.144806,   912.544128
   1682,   14379.8467,  -299.144806,   912.544128
   1683,   14431.4033,  -299.144806,   912.544128
   1684,   12884.6992,  -299.144806,   912.544128
   1685,   12936.2559,  -299.144806,   912.544128
   1686,   12987.8125,  -299.144806,   912.544128
   1687,   13039.3691,  -299.144806,   912.544128
   1688,   13090.9258,  -299.144806,   912.544128
   1689,   13142.4824,  -299.144806,   912.544128
   1690,     13194.04,  -299.144806,   912.544128
   1691,   13245.5967,  -299.144806,   912.544128
   1692,   13297.1533,  -299.144806,   912.544128
   1693,     13348.71,  -299.144806,   912.544128
   1694,   13400.2666,  -299.144806,   912.544128
   1695,   13451.8242,  -299.144806,   912.544128
   1696,   13503.3809,  -299.144806,   912.544128
   1697,   13554.9375,  -299.144806,   912.544128
   1698,   13606.4941,  -299.144806,   912.544128
   1699,     12059.79,  -299.144806,   912.544128
   1700,   12111.3467,  -299.144806,   912.544128
   1701,   12162.9033,  -299.144806,   912.544128
   1702,     12214.46,  -299.144806,   912.544128
   1703,   12266.0166,  -299.144806,   912.544128
   1704,   12317.5742,  -299.144806,   912.544128
   1705,   12369.1309,  -299.144806,   912.544128
   1706,   12420.6875,  -299.144806,   912.544128
   1707,   12472.2441,  -299.144806,   912.544128
   1708,   12523.8008,  -299.144806,   912.544128
   1709,   12575.3574,  -299.144806,   912.544128
   1710,    12626.915,  -299.144806,   912.544128
   1711,   12678.4717,  -299.144806,   912.544128
   1712,   12730.0283,  -299.144806,   912.544128
   1713,    12781.585,  -299.144806,   912.544128
   1714,   11234.8809,  -299.144806,   912.544128
   1715,   11286.4375,  -299.144806,   912.544128
   1716,   11337.9941,  -299.144806,   912.544128
   1717,   11389.5508,  -299.144806,   912.544128
   1718,   11441.1074,  -299.144806,   912.544128
   1719,    11492.665,  -299.144806,   912.544128
   1720,   11544.2217,  -299.144806,   912.544128
   1721,   11595.7783,  -299.144806,   912.544128
   1722,    11647.335,  -299.144806,   912.544128
   1723,   11698.8916,  -299.144806,   912.544128
   1724,   11750.4492,  -299.144806,   912.544128
   1725,   11802.0059,  -299.144806,   912.544128
   1726,   11853.5625,  -299.144806,   912.544128
   1727,   11905.1191,  -299.144806,   912.544128
   1728,   11956.6758,  -299.144806,   912.544128
   1729,   10409.9717,  -299.144806,   912.544128
   1730,   10461.5283,  -299.144806,   912.544128
   1731,    10513.085,  -299.144806,   912.544128
   1732,   10564.6416,  -299.144806,   912.544128
   1733,   10616.1992,  -299.144806,   912.544128
   1734,   10667.7559,  -299.144806,   912.544128
   1735,   10719.3125,  -299.144806,   912.544128
   1736,   10770.8691,  -299.144806,   912.544128
   1737,   10822.4258,  -299.144806,   912.544128
   1738,   10873.9824,  -299.144806,   912.544128
   1739,     10925.54,  -299.144806,   912.544128
   1740,   10977.0967,  -299.144806,   912.544128
   1741,   11028.6533,  -299.144806,   912.544128
   1742,     11080.21,  -299.144806,   912.544128
   1743,   11131.7666,  -299.144806,   912.544128
   1744,    9585.0625,  -299.144806,   912.544128
   1745,   9636.61914,  -299.144806,   912.544128
   1746,   9688.17578,  -299.144806,   912.544128
   1747,   9739.73242,  -299.144806,   912.544128
   1748,   9791.29004,  -299.144806,   912.544128
   1749,   9842.84668,  -299.144806,   912.544128
   1750,   9894.40332,  -299.144806,   912.544128
   1751,   9945.95996,  -299.144806,   912.544128
   1752,    9997.5166,  -299.144806,   912.544128
   1753,   10049.0742,  -299.144806,   912.544128
   1754,   10100.6309,  -299.144806,   912.544128
   1755,   10152.1875,  -299.144806,   912.544128
   1756,   10203.7441,  -299.144806,   912.544128
   1757,   10255.3008,  -299.144806,   912.544128
   1758,   10306.8574,  -299.144806,   912.544128
   1759,   9172.60742,  -299.144806,   912.544128
   1760,   9224.16504,  -299.144806,   912.544128
   1761,   9275.72168,  -299.144806,   912.544128
   1762,   9327.27832,  -299.144806,   912.544128
   1763,   9378.83496,  -299.144806,   912.544128
   1764,    9430.3916,  -299.144806,   912.544128
   1765,   9481.94922,  -299.144806,   912.544128
   1766,   8760.15332,  -299.144806,   912.544128
   1767,   8811.70996,  -299.144806,   912.544128
   1768,    8863.2666,  -299.144806,   912.544128
   1769,   8914.82422,  -299.144806,   912.544128
   1770,   8966.38086,  -299.144806,   912.544128
   1771,    9017.9375,  -299.144806,   912.544128
   1772,   9069.49414,  -299.144806,   912.544128
   1773,   7935.24414,  -299.144806,   912.544128
   1774,   7986.80127,  -299.144806,   912.544128
   1775,   8038.35791,  -299.144806,   912.544128
   1776,   8089.91455,  -299.144806,   912.544128
   1777,   8141.47168,  -299.144806,   912.544128
   1778,   8193.02832,  -299.144806,   912.544128
   1779,   8244.58496,  -299.144806,   912.544128
   1780,    8296.1416,  -299.144806,   912.544128
   1781,   8347.69922,  -299.144806,   912.544128
   1782,   8399.25586,  -299.144806,   912.544128
   1783,    8450.8125,  -299.144806,   912.544128
   1784,   8502.36914,  -299.144806,   912.544128
   1785,   8553.92578,  -299.144806,   912.544128
   1786,   8605.48242,  -299.144806,   912.544128
   1787,   8657.04004,  -299.144806,   912.544128
   1788,   7110.33496,  -299.144806,   912.544128
   1789,   7161.89209,  -299.144806,   912.544128
   1790,   7213.44873,  -299.144806,   912.544128
   1791,   7265.00537,  -299.144806,   912.544128
   1792,    7316.5625,  -299.144806,   912.544128
   1793,   7368.11914,  -299.144806,   912.544128
   1794,   7419.67627,  -299.144806,   912.544128
   1795,   7471.23291,  -299.144806,   912.544128
   1796,   7522.78955,  -299.144806,   912.544128
   1797,   7574.34668,  -299.144806,   912.544128
   1798,   7625.90332,  -299.144806,   912.544128
   1799,   7677.45996,  -299.144806,   912.544128
   1800,   7729.01709,  -299.144806,   912.544128
   1801,   7780.57373,  -299.144806,   912.544128
   1802,   7832.13037,  -299.144806,   912.544128
   1803,   6285.42627,  -299.144806,   912.544128
   1804,   6336.98291,  -299.144806,   912.544128
   1805,   6388.53955,  -299.144806,   912.544128
   1806,   6440.09668,  -299.144806,   912.544128
   1807,   6491.65332,  -299.144806,   912.544128
   1808,   6543.20996,  -299.144806,   912.544128
   1809,   6594.76709,  -299.144806,   912.544128
   1810,   6646.32373,  -299.144806,   912.544128
   1811,   6697.88037,  -299.144806,   912.544128
   1812,    6749.4375,  -299.144806,   912.544128
   1813,   6800.99414,  -299.144806,   912.544128
   1814,   6852.55127,  -299.144806,   912.544128
   1815,   6904.10791,  -299.144806,   912.544128
   1816,   6955.66455,  -299.144806,   912.544128
   1817,   7007.22168,  -299.144806,   912.544128
   1818,   5460.51709,  -299.144806,   912.544128
   1819,   5512.07373,  -299.144806,   912.544128
   1820,   5563.63037,  -299.144806,   912.544128
   1821,    5615.1875,  -299.144806,   912.544128
   1822,   5666.74414,  -299.144806,   912.544128
   1823,   5718.30127,  -299.144806,   912.544128
   1824,   5769.85791,  -299.144806,   912.544128
   1825,   5821.41455,  -299.144806,   912.544128
   1826,   5872.97168,  -299.144806,   912.544128
   1827,   5924.52832,  -299.144806,   912.544128
   1828,   5976.08496,  -299.144806,   912.544128
   1829,   6027.64209,  -299.144806,   912.544128
   1830,   6079.19873,  -299.144806,   912.544128
   1831,   6130.75537,  -299.144806,   912.544128
   1832,    6182.3125,  -299.144806,   912.544128
   1833,   4635.60791,  -299.144806,   912.544128
   1834,   4687.16455,  -299.144806,   912.544128
   1835,   4738.72168,  -299.144806,   912.544128
   1836,   4790.27832,  -299.144806,   912.544128
   1837,   4841.83496,  -299.144806,   912.544128
   1838,   4893.39209,  -299.144806,   912.544128
   1839,   4944.94873,  -299.144806,   912.544128
   1840,   4996.50537,  -299.144806,   912.544128
   1841,    5048.0625,  -299.144806,   912.544128
   1842,   5099.61914,  -299.144806,   912.544128
   1843,   5151.17627,  -299.144806,   912.544128
   1844,   5202.73291,  -299.144806,   912.544128
   1845,   5254.28955,  -299.144806,   912.544128
   1846,   5305.84668,  -299.144806,   912.544128
   1847,   5357.40332,  -299.144806,   912.544128
   1848,   3810.69873,  -299.144806,   912.544128
   1849,   3862.25562,  -299.144806,   912.544128
   1850,    3913.8125,  -299.144806,   912.544128
   1851,   3965.36914,  -299.144806,   912.544128
   1852,   4016.92603,  -299.144806,   912.544128
   1853,   4068.48291,  -299.144806,   912.544128
   1854,   4120.03955,  -299.144806,   912.544128
   1855,   4171.59668,  -299.144806,   912.544128
   1856,   4223.15332,  -299.144806,   912.544128
   1857,   4274.70996,  -299.144806,   912.544128
   1858,   4326.26709,  -299.144806,   912.544128
   1859,   4377.82373,  -299.144806,   912.544128
   1860,   4429.38037,  -299.144806,   912.544128
   1861,    4480.9375,  -299.144806,   912.544128
   1862,   4532.49414,  -299.144806,   912.544128
   1863,   2985.78979,  -299.144806,   912.544128
   1864,   3037.34644,  -299.144806,   912.544128
   1865,   3088.90332,  -299.144806,   912.544128
   1866,   3140.46021,  -299.144806,   912.544128
   1867,   3192.01685,  -299.144806,   912.544128
   1868,   3243.57373,  -299.144806,   912.544128
   1869,   3295.13062,  -299.144806,   912.544128
   1870,    3346.6875,  -299.144806,   912.544128
   1871,   3398.24414,  -299.144806,   912.544128
   1872,   3449.80103,  -299.144806,   912.544128
   1873,   3501.35791,  -299.144806,   912.544128
   1874,   3552.91479,  -299.144806,   912.544128
   1875,   3604.47144,  -299.144806,   912.544128
   1876,   3656.02832,  -299.144806,   912.544128
   1877,   3707.58521,  -299.144806,   912.544128
   1878,   2160.88062,  -299.144806,   912.544128
   1879,    2212.4375,  -299.144806,   912.544128
   1880,   2263.99414,  -299.144806,   912.544128
   1881,   2315.55103,  -299.144806,   912.544128
   1882,   2367.10791,  -299.144806,   912.544128
   1883,   2418.66479,  -299.144806,   912.544128
   1884,   2470.22144,  -299.144806,   912.544128
   1885,   2521.77832,  -299.144806,   912.544128
   1886,   2573.33521,  -299.144806,   912.544128
   1887,   2624.89185,  -299.144806,   912.544128
   1888,   2676.44873,  -299.144806,   912.544128
   1889,   2728.00562,  -299.144806,   912.544128
   1890,    2779.5625,  -299.144806,   912.544128
   1891,   2831.11914,  -299.144806,   912.544128
   1892,   2882.67603,  -299.144806,   912.544128
   1893,   1335.97156,  -299.144806,   912.544128
   1894,   1387.52832,  -299.144806,   912.544128
   1895,   1439.08521,  -299.144806,   912.544128
   1896,   1490.64197,  -299.144806,   912.544128
   1897,   1542.19873,  -299.144806,   912.544128
   1898,   1593.75562,  -299.144806,   912.544128
   1899,   1645.31238,  -299.144806,   912.544128
   1900,   1696.86926,  -299.144806,   912.544128
   1901,   1748.42603,  -299.144806,   912.544128
   1902,   1799.98291,  -299.144806,   912.544128
   1903,   1851.53967,  -299.144806,   912.544128
   1904,   1903.09656,  -299.144806,   912.544128
   1905,   1954.65332,  -299.144806,   912.544128
   1906,   2006.21021,  -299.144806,   912.544128
   1907,   2057.76685,  -299.144806,   912.544128
   1908,   511.062408,  -299.144806,   912.544128
   1909,   562.619263,  -299.144806,   912.544128
   1910,   614.176086,  -299.144806,   912.544128
   1911,   665.732849,  -299.144806,   912.544128
   1912,   717.289673,  -299.144806,   912.544128
   1913,   768.846497,  -299.144806,   912.544128
   1914,    820.40332,  -299.144806,   912.544128
   1915,   871.960144,  -299.144806,   912.544128
   1916,   923.516968,  -299.144806,   912.544128
   1917,   975.073792,  -299.144806,   912.544128
   1918,   1026.63062,  -299.144806,   912.544128
   1919,   1078.18738,  -299.144806,   912.544128
   1920,   1129.74426,  -299.144806,   912.544128
   1921,   1181.30103,  -299.144806,   912.544128
   1922,   1232.85791,  -299.144806,   912.544128
   1923,    98.607872,  -299.144806,   912.544128
   1924,   150.164688,  -299.144806,   912.544128
   1925,   201.721512,  -299.144806,   912.544128
   1926,   253.278336,  -299.144806,   912.544128
   1927,   304.835144,  -299.144806,   912.544128
   1928,   356.391968,  -299.144806,   912.544128
   1929,   407.948792,  -299.144806,   912.544128
   1930,        9074.,   48.5081825,    915.40387
   1931,        9074.,   97.0163651,   903.807739
   1932,        9074.,   145.524551,   892.211609
   1933,        9074.,    194.03273,   880.615479
   1934,        9074.,   242.540909,   869.019348
   1935,        9074.,   291.049103,   857.423157
   1936,        9074.,   339.557281,   845.827026
   1937,        9074.,    388.06546,   834.230896
   1938,        9074.,   436.573639,   822.634766
   1939,        9074.,   485.081818,   811.038635
   1940,        9074.,   533.590027,   799.442505
   1941,        9074.,   582.098206,   787.846375
   1942,        9074.,   630.606384,   776.250244
   1943,        9074.,   679.114563,   764.654114
   1944,        9074.,   727.622742,   753.057983
   1945,        9074.,    776.13092,   741.461792
   1946,        9074.,   824.639099,   729.865662
   1947,        9074.,   873.147278,   718.269531
   1948,        9074.,   921.655457,   706.673401
   1949,        9074.,   970.163635,   695.077271
   1950,        9074.,   1018.67181,    683.48114
   1951,        9074.,   1067.18005,    671.88501
   1952,        9074.,   1115.68823,   660.288879
   1953,        9074.,   1164.19641,   648.692749
   1954,        9074.,   1212.70459,   637.096619
   1955,        9074.,   1261.21277,   625.500427
   1956,        9074.,   1309.72095,   613.904297
   1957,        9074.,   1358.22913,   602.308167
   1958,        9074.,    1406.7373,   590.712036
   1959,        9074.,   1455.24548,   579.115906
   1960,        9074.,   1503.75366,   567.519775
   1961,        9074.,   1552.26184,   555.923645
   1962,        9074.,   1600.77002,   544.327515
   1963,        9074.,    1649.2782,   532.731384
   1964,        9074.,   1697.78638,   521.135254
   1965,        9074.,   1746.29456,   509.539093
   1966,        9074.,   1794.80273,   497.942963
   1967,        9074.,   1843.31091,   486.346832
   1968,        9074.,   1891.81909,   474.750671
   1969,        9074.,   1940.32727,   463.154541
   1970,        9074.,   1988.83545,   451.558411
   1971,        9074.,   2037.34363,    439.96228
   1972,        9074.,   2085.85181,    428.36615
   1973,        9074.,   2134.36011,   466.170898
   1974,        9074.,   2134.36011,   515.571838
   1975,        9074.,   2134.36011,   564.972717
   1976,        9074.,   2134.36011,   614.373657
   1977,        9074.,   2134.36011,   663.774536
   1978,        9074.,   2134.36011,   713.175476
   1979,        9074.,   2134.36011,   762.576355
   1980,        9074.,   2134.36011,   811.977295
   1981,        9074.,   2134.36011,   861.378174
   1982,        9074.,   2134.36011,   910.779114
   1983,        9074.,   2134.36011,   960.179993
   1984,        9074.,   2134.36011,   1009.58093
   1985,        9074.,   2134.36011,   1058.98181
   1986,        9074.,   2134.36011,   1108.38269
   1987,        9074.,   2134.36011,   1157.78369
   1988,        9074.,   2134.36011,   1207.18457
   1989,        9074.,   2134.36011,   1256.58545
   1990,        9074.,   2134.36011,   1305.98633
   1991,        9074.,   2134.36011,   1355.38733
   1992,        9074.,   2134.36011,   1404.78821
   1993,        9074.,   2134.36011,   1454.18909
   1994,        9074.,   2134.36011,   1503.58997
   1995,        9074.,   2134.36011,   1552.99097
   1996,        9074.,   2134.36011,   1602.39185
   1997,        9074.,   2134.36011,   1651.79272
   1998,        9074.,   2134.36011,    1701.1936
   1999,        9074.,   2134.36011,    1750.5946
   2000,        9074.,   2134.36011,   1799.99548
   2001,        9074.,   2134.36011,   1849.39636
   2002,        9074.,   2134.36011,   1898.79724
   2003,        9074.,   2134.36011,   1948.19824
   2004,        9074.,   2134.36011,   1997.59912
   2005,        9074.,           0.,   968.666687
   2006,        9074.,           0.,   1010.33331
   2007,        9074.,           0.,   48.7894745
   2008,        9074.,           0.,    97.578949
   2009,        9074.,           0.,   146.368423
   2010,        9074.,           0.,   195.157898
   2011,        9074.,           0.,   243.947372
   2012,        9074.,           0.,   292.736847
   2013,        9074.,           0.,   341.526306
   2014,        9074.,           0.,   390.315796
   2015,        9074.,           0.,   439.105255
   2016,        9074.,           0.,   487.894745
   2017,        9074.,           0.,   536.684204
   2018,        9074.,           0.,   585.473694
   2019,        9074.,           0.,   634.263184
   2020,        9074.,           0.,   683.052612
   2021,        9074.,           0.,   731.842102
   2022,        9074.,           0.,   780.631592
   2023,        9074.,           0.,   829.421082
   2024,        9074.,           0.,    878.21051
   2025,        9074.,   2134.36011,   52.0962486
   2026,        9074.,   2134.36011,   104.192497
   2027,        9074.,   2134.36011,   156.288757
   2028,        9074.,   2134.36011,   208.384995
   2029,        9074.,   2134.36011,   260.481262
   2030,        9074.,   2134.36011,   312.577515
   2031,        9074.,   2134.36011,   364.673737
   2032,           0.,   48.5081825,    915.40387
   2033,           0.,   97.0163651,   903.807739
   2034,           0.,   145.524551,   892.211609
   2035,           0.,    194.03273,   880.615479
   2036,           0.,   242.540909,   869.019348
   2037,           0.,   291.049103,   857.423157
   2038,           0.,   339.557281,   845.827026
   2039,           0.,    388.06546,   834.230896
   2040,           0.,   436.573639,   822.634766
   2041,           0.,   485.081818,   811.038635
   2042,           0.,   533.590027,   799.442505
   2043,           0.,   582.098206,   787.846375
   2044,           0.,   630.606384,   776.250244
   2045,           0.,   679.114563,   764.654114
   2046,           0.,   727.622742,   753.057983
   2047,           0.,    776.13092,   741.461792
   2048,           0.,   824.639099,   729.865662
   2049,           0.,   873.147278,   718.269531
   2050,           0.,   921.655457,   706.673401
   2051,           0.,   970.163635,   695.077271
   2052,           0.,   1018.67181,    683.48114
   2053,           0.,   1067.18005,    671.88501
   2054,           0.,   1115.68823,   660.288879
   2055,           0.,   1164.19641,   648.692749
   2056,           0.,   1212.70459,   637.096619
   2057,           0.,   1261.21277,   625.500427
   2058,           0.,   1309.72095,   613.904297
   2059,           0.,   1358.22913,   602.308167
   2060,           0.,    1406.7373,   590.712036
   2061,           0.,   1455.24548,   579.115906
   2062,           0.,   1503.75366,   567.519775
   2063,           0.,   1552.26184,   555.923645
   2064,           0.,   1600.77002,   544.327515
   2065,           0.,    1649.2782,   532.731384
   2066,           0.,   1697.78638,   521.135254
   2067,           0.,   1746.29456,   509.539093
   2068,           0.,   1794.80273,   497.942963
   2069,           0.,   1843.31091,   486.346832
   2070,           0.,   1891.81909,   474.750671
   2071,           0.,   1940.32727,   463.154541
   2072,           0.,   1988.83545,   451.558411
   2073,           0.,   2037.34363,    439.96228
   2074,           0.,   2085.85181,    428.36615
   2075,           0.,   2134.36011,   466.170898
   2076,           0.,   2134.36011,   515.571838
   2077,           0.,   2134.36011,   564.972717
   2078,           0.,   2134.36011,   614.373657
   2079,           0.,   2134.36011,   663.774536
   2080,           0.,   2134.36011,   713.175476
   2081,           0.,   2134.36011,   762.576355
   2082,           0.,   2134.36011,   811.977295
   2083,           0.,   2134.36011,   861.378174
   2084,           0.,   2134.36011,   910.779114
   2085,           0.,   2134.36011,   960.179993
   2086,           0.,   2134.36011,   1009.58093
   2087,           0.,   2134.36011,   1058.98181
   2088,           0.,   2134.36011,   1108.38269
   2089,           0.,   2134.36011,   1157.78369
   2090,           0.,   2134.36011,   1207.18457
   2091,           0.,   2134.36011,   1256.58545
   2092,           0.,   2134.36011,   1305.98633
   2093,           0.,   2134.36011,   1355.38733
   2094,           0.,   2134.36011,   1404.78821
   2095,           0.,   2134.36011,   1454.18909
   2096,           0.,   2134.36011,   1503.58997
   2097,           0.,   2134.36011,   1552.99097
   2098,           0.,   2134.36011,   1602.39185
   2099,           0.,   2134.36011,   1651.79272
   2100,           0.,   2134.36011,    1701.1936
   2101,           0.,   2134.36011,    1750.5946
   2102,           0.,   2134.36011,   1799.99548
   2103,           0.,   2134.36011,   1849.39636
   2104,           0.,   2134.36011,   1898.79724
   2105,           0.,   2134.36011,   1948.19824
   2106,           0.,   2134.36011,   1997.59912
   2107,           0.,           0.,   968.666687
   2108,           0.,           0.,   1010.33331
   2109,           0.,           0.,   48.7894745
   2110,           0.,           0.,    97.578949
   2111,           0.,           0.,   146.368423
   2112,           0.,           0.,   195.157898
   2113,           0.,           0.,   243.947372
   2114,           0.,           0.,   292.736847
   2115,           0.,           0.,   341.526306
   2116,           0.,           0.,   390.315796
   2117,           0.,           0.,   439.105255
   2118,           0.,           0.,   487.894745
   2119,           0.,           0.,   536.684204
   2120,           0.,           0.,   585.473694
   2121,           0.,           0.,   634.263184
   2122,           0.,           0.,   683.052612
   2123,           0.,           0.,   731.842102
   2124,           0.,           0.,   780.631592
   2125,           0.,           0.,   829.421082
   2126,           0.,           0.,    878.21051
   2127,           0.,   2134.36011,   52.0962486
   2128,           0.,   2134.36011,   104.192497
   2129,           0.,   2134.36011,   156.288757
   2130,           0.,   2134.36011,   208.384995
   2131,           0.,   2134.36011,   260.481262
   2132,           0.,   2134.36011,   312.577515
   2133,           0.,   2134.36011,   364.673737
   2134,        4537.,   48.5081825,    915.40387
   2135,        4537.,   97.0163651,   903.807739
   2136,        4537.,   145.524551,   892.211609
   2137,        4537.,    194.03273,   880.615479
   2138,        4537.,   242.540909,   869.019348
   2139,        4537.,   291.049103,   857.423157
   2140,        4537.,   339.557281,   845.827026
   2141,        4537.,    388.06546,   834.230896
   2142,        4537.,   436.573639,   822.634766
   2143,        4537.,   485.081818,   811.038635
   2144,        4537.,   533.590027,   799.442505
   2145,        4537.,   582.098206,   787.846375
   2146,        4537.,   630.606384,   776.250244
   2147,        4537.,   679.114563,   764.654114
   2148,        4537.,   727.622742,   753.057983
   2149,        4537.,    776.13092,   741.461792
   2150,        4537.,   824.639099,   729.865662
   2151,        4537.,   873.147278,   718.269531
   2152,        4537.,   921.655457,   706.673401
   2153,        4537.,   970.163635,   695.077271
   2154,        4537.,   1018.67181,    683.48114
   2155,        4537.,   1067.18005,    671.88501
   2156,        4537.,   1115.68823,   660.288879
   2157,        4537.,   1164.19641,   648.692749
   2158,        4537.,   1212.70459,   637.096619
   2159,        4537.,   1261.21277,   625.500427
   2160,        4537.,   1309.72095,   613.904297
   2161,        4537.,   1358.22913,   602.308167
   2162,        4537.,    1406.7373,   590.712036
   2163,        4537.,   1455.24548,   579.115906
   2164,        4537.,   1503.75366,   567.519775
   2165,        4537.,   1552.26184,   555.923645
   2166,        4537.,   1600.77002,   544.327515
   2167,        4537.,    1649.2782,   532.731384
   2168,        4537.,   1697.78638,   521.135254
   2169,        4537.,   1746.29456,   509.539093
   2170,        4537.,   1794.80273,   497.942963
   2171,        4537.,   1843.31091,   486.346832
   2172,        4537.,   1891.81909,   474.750671
   2173,        4537.,   1940.32727,   463.154541
   2174,        4537.,   1988.83545,   451.558411
   2175,        4537.,   2037.34363,    439.96228
   2176,        4537.,   2085.85181,    428.36615
   2177,        4537.,   2134.36011,   466.170898
   2178,        4537.,   2134.36011,   515.571838
   2179,        4537.,   2134.36011,   564.972717
   2180,        4537.,   2134.36011,   614.373657
   2181,        4537.,   2134.36011,   663.774536
   2182,        4537.,   2134.36011,   713.175476
   2183,        4537.,   2134.36011,   762.576355
   2184,        4537.,   2134.36011,   811.977295
   2185,        4537.,   2134.36011,   861.378174
   2186,        4537.,   2134.36011,   910.779114
   2187,        4537.,   2134.36011,   960.179993
   2188,        4537.,   2134.36011,   1009.58093
   2189,        4537.,   2134.36011,   1058.98181
   2190,        4537.,   2134.36011,   1108.38269
   2191,        4537.,   2134.36011,   1157.78369
   2192,        4537.,   2134.36011,   1207.18457
   2193,        4537.,   2134.36011,   1256.58545
   2194,        4537.,   2134.36011,   1305.98633
   2195,        4537.,   2134.36011,   1355.38733
   2196,        4537.,   2134.36011,   1404.78821
   2197,        4537.,   2134.36011,   1454.18909
   2198,        4537.,   2134.36011,   1503.58997
   2199,        4537.,   2134.36011,   1552.99097
   2200,        4537.,   2134.36011,   1602.39185
   2201,        4537.,   2134.36011,   1651.79272
   2202,        4537.,   2134.36011,    1701.1936
   2203,        4537.,   2134.36011,    1750.5946
   2204,        4537.,   2134.36011,   1799.99548
   2205,        4537.,   2134.36011,   1849.39636
   2206,        4537.,   2134.36011,   1898.79724
   2207,        4537.,   2134.36011,   1948.19824
   2208,        4537.,   2134.36011,   1997.59912
   2209,        4537.,           0.,   968.666687
   2210,        4537.,           0.,   1010.33331
   2211,        4537.,           0.,   48.7894745
   2212,        4537.,           0.,    97.578949
   2213,        4537.,           0.,   146.368423
   2214,        4537.,           0.,   195.157898
   2215,        4537.,           0.,   243.947372
   2216,        4537.,           0.,   292.736847
   2217,        4537.,           0.,   341.526306
   2218,        4537.,           0.,   390.315796
   2219,        4537.,           0.,   439.105255
   2220,        4537.,           0.,   487.894745
   2221,        4537.,           0.,   536.684204
   2222,        4537.,           0.,   585.473694
   2223,        4537.,           0.,   634.263184
   2224,        4537.,           0.,   683.052612
   2225,        4537.,           0.,   731.842102
   2226,        4537.,           0.,   780.631592
   2227,        4537.,           0.,   829.421082
   2228,        4537.,           0.,    878.21051
   2229,        4537.,   2134.36011,   52.0962486
   2230,        4537.,   2134.36011,   104.192497
   2231,        4537.,   2134.36011,   156.288757
   2232,        4537.,   2134.36011,   208.384995
   2233,        4537.,   2134.36011,   260.481262
   2234,        4537.,   2134.36011,   312.577515
   2235,        4537.,   2134.36011,   364.673737
   2236,       13611.,   48.5081825,    915.40387
   2237,       13611.,   97.0163651,   903.807739
   2238,       13611.,   145.524551,   892.211609
   2239,       13611.,    194.03273,   880.615479
   2240,       13611.,   242.540909,   869.019348
   2241,       13611.,   291.049103,   857.423157
   2242,       13611.,   339.557281,   845.827026
   2243,       13611.,    388.06546,   834.230896
   2244,       13611.,   436.573639,   822.634766
   2245,       13611.,   485.081818,   811.038635
   2246,       13611.,   533.590027,   799.442505
   2247,       13611.,   582.098206,   787.846375
   2248,       13611.,   630.606384,   776.250244
   2249,       13611.,   679.114563,   764.654114
   2250,       13611.,   727.622742,   753.057983
   2251,       13611.,    776.13092,   741.461792
   2252,       13611.,   824.639099,   729.865662
   2253,       13611.,   873.147278,   718.269531
   2254,       13611.,   921.655457,   706.673401
   2255,       13611.,   970.163635,   695.077271
   2256,       13611.,   1018.67181,    683.48114
   2257,       13611.,   1067.18005,    671.88501
   2258,       13611.,   1115.68823,   660.288879
   2259,       13611.,   1164.19641,   648.692749
   2260,       13611.,   1212.70459,   637.096619
   2261,       13611.,   1261.21277,   625.500427
   2262,       13611.,   1309.72095,   613.904297
   2263,       13611.,   1358.22913,   602.308167
   2264,       13611.,    1406.7373,   590.712036
   2265,       13611.,   1455.24548,   579.115906
   2266,       13611.,   1503.75366,   567.519775
   2267,       13611.,   1552.26184,   555.923645
   2268,       13611.,   1600.77002,   544.327515
   2269,       13611.,    1649.2782,   532.731384
   2270,       13611.,   1697.78638,   521.135254
   2271,       13611.,   1746.29456,   509.539093
   2272,       13611.,   1794.80273,   497.942963
   2273,       13611.,   1843.31091,   486.346832
   2274,       13611.,   1891.81909,   474.750671
   2275,       13611.,   1940.32727,   463.154541
   2276,       13611.,   1988.83545,   451.558411
   2277,       13611.,   2037.34363,    439.96228
   2278,       13611.,   2085.85181,    428.36615
   2279,       13611.,   2134.36011,   466.170898
   2280,       13611.,   2134.36011,   515.571838
   2281,       13611.,   2134.36011,   564.972717
   2282,       13611.,   2134.36011,   614.373657
   2283,       13611.,   2134.36011,   663.774536
   2284,       13611.,   2134.36011,   713.175476
   2285,       13611.,   2134.36011,   762.576355
   2286,       13611.,   2134.36011,   811.977295
   2287,       13611.,   2134.36011,   861.378174
   2288,       13611.,   2134.36011,   910.779114
   2289,       13611.,   2134.36011,   960.179993
   2290,       13611.,   2134.36011,   1009.58093
   2291,       13611.,   2134.36011,   1058.98181
   2292,       13611.,   2134.36011,   1108.38269
   2293,       13611.,   2134.36011,   1157.78369
   2294,       13611.,   2134.36011,   1207.18457
   2295,       13611.,   2134.36011,   1256.58545
   2296,       13611.,   2134.36011,   1305.98633
   2297,       13611.,   2134.36011,   1355.38733
   2298,       13611.,   2134.36011,   1404.78821
   2299,       13611.,   2134.36011,   1454.18909
   2300,       13611.,   2134.36011,   1503.58997
   2301,       13611.,   2134.36011,   1552.99097
   2302,       13611.,   2134.36011,   1602.39185
   2303,       13611.,   2134.36011,   1651.79272
   2304,       13611.,   2134.36011,    1701.1936
   2305,       13611.,   2134.36011,    1750.5946
   2306,       13611.,   2134.36011,   1799.99548
   2307,       13611.,   2134.36011,   1849.39636
   2308,       13611.,   2134.36011,   1898.79724
   2309,       13611.,   2134.36011,   1948.19824
   2310,       13611.,   2134.36011,   1997.59912
   2311,       13611.,           0.,   968.666687
   2312,       13611.,           0.,   1010.33331
   2313,       13611.,           0.,   48.7894745
   2314,       13611.,           0.,    97.578949
   2315,       13611.,           0.,   146.368423
   2316,       13611.,           0.,   195.157898
   2317,       13611.,           0.,   243.947372
   2318,       13611.,           0.,   292.736847
   2319,       13611.,           0.,   341.526306
   2320,       13611.,           0.,   390.315796
   2321,       13611.,           0.,   439.105255
   2322,       13611.,           0.,   487.894745
   2323,       13611.,           0.,   536.684204
   2324,       13611.,           0.,   585.473694
   2325,       13611.,           0.,   634.263184
   2326,       13611.,           0.,   683.052612
   2327,       13611.,           0.,   731.842102
   2328,       13611.,           0.,   780.631592
   2329,       13611.,           0.,   829.421082
   2330,       13611.,           0.,    878.21051
   2331,       13611.,   2134.36011,   52.0962486
   2332,       13611.,   2134.36011,   104.192497
   2333,       13611.,   2134.36011,   156.288757
   2334,       13611.,   2134.36011,   208.384995
   2335,       13611.,   2134.36011,   260.481262
   2336,       13611.,   2134.36011,   312.577515
   2337,       13611.,   2134.36011,   364.673737
*Element, type=B31
 1,   1, 151
 2, 151, 152
 3, 152, 153
 4, 153, 154
 5, 154, 155
 6, 155, 156
 7, 156, 157
 8, 157, 158
 9, 158, 159
10, 159, 160
11, 160, 161
12, 161, 162
13, 162, 163
14, 163, 164
15, 164, 165
16, 165, 166
17, 166, 167
18, 167, 168
19, 168, 169
20, 169, 170
21, 170, 171
22, 171, 172
23, 172, 173
24, 173, 174
25, 174, 175
26, 175, 176
27, 176, 177
28, 177, 178
29, 178, 179
30, 179, 180
31, 180, 181
32, 181, 182
33, 182, 183
34, 183, 184
35, 184, 185
36, 185, 186
37, 186, 187
38, 187, 188
39, 188, 189
40, 189, 190
41, 190, 191
42, 191, 192
43, 192, 193
44, 193,   2
45,   2, 194
46, 194, 195
47, 195, 196
48, 196, 197
49, 197, 198
50, 198, 199
51, 199, 200
52, 200, 201
53, 201, 202
54, 202, 203
55, 203, 204
56, 204, 205
57, 205, 206
58, 206, 207
59, 207, 208
60, 208, 209
61, 209, 210
62, 210, 211
63, 211, 212
64, 212, 213
65, 213, 214
66, 214, 215
67, 215, 216
68, 216, 217
69, 217, 218
70, 218, 219
71, 219, 220
72, 220, 221
73, 221, 222
74, 222, 223
75, 223, 224
76, 224, 225
77, 225,   3
78,   1, 226
79, 226, 227
80, 227,   4
 81,   5, 228
 82, 228, 229
 83, 229, 230
 84, 230, 231
 85, 231, 232
 86, 232, 233
 87, 233, 234
 88, 234, 235
 89, 235, 236
 90, 236, 237
 91, 237, 238
 92, 238, 239
 93, 239, 240
 94, 240, 241
 95, 241, 242
 96, 242, 243
 97, 243, 244
 98, 244, 245
 99, 245,   1
100,   6, 246
101, 246, 247
102, 247, 248
103, 248, 249
104, 249, 250
105, 250, 251
106, 251, 252
107, 252,   2
108,   7, 253
109, 253, 254
110, 254, 255
111, 255, 256
112, 256, 257
113, 257, 258
114, 258, 259
115, 259,   8
116,   8, 260
117, 260, 261
118, 261, 262
119, 262, 263
120, 263, 264
121, 264, 265
122, 265, 266
123, 266, 267
124, 267, 268
125, 268,   9
126,  10, 269
127, 269, 270
128, 270, 271
129, 271, 272
130, 272, 273
131, 273, 274
132, 274, 275
133, 275, 276
134, 276, 277
135, 277, 278
136, 278, 279
137, 279, 280
138, 280, 281
139, 281, 282
140, 282, 283
141, 283,   7
142,  11, 284
143, 284, 285
144, 285, 286
145, 286, 287
146, 287, 288
147, 288, 289
148, 289,   8
149,  12, 290
150, 290, 291
151, 291, 292
152, 292, 293
153, 293, 294
154, 294, 295
155, 295, 296
156, 296, 297
157, 297, 298
158, 298, 299
159, 299, 300
160, 300, 301
161, 301, 302
162, 302, 303
163, 303, 304
164, 304,  10
165,  13, 305
166, 305, 306
167, 306, 307
168, 307, 308
169, 308, 309
170, 309, 310
171, 310, 311
172, 311, 312
173, 312, 313
174, 313, 314
175, 314, 315
176, 315, 316
177, 316, 317
178, 317, 318
179, 318, 319
180, 319,  12
181,  14, 320
182, 320, 321
183, 321, 322
184, 322, 323
185, 323, 324
186, 324, 325
187, 325, 326
188, 326, 327
189, 327, 328
190, 328, 329
191, 329, 330
192, 330, 331
193, 331, 332
194, 332, 333
195, 333, 334
196, 334,  13
197,  15, 335
198, 335, 336
199, 336, 337
200, 337, 338
201, 338, 339
202, 339, 340
203, 340, 341
204, 341, 342
205, 342, 343
206, 343, 344
207, 344, 345
208, 345, 346
209, 346, 347
210, 347, 348
211, 348, 349
212, 349,  14
213,  16, 350
214, 350, 351
215, 351, 352
216, 352, 353
217, 353, 354
218, 354, 355
219, 355, 356
220, 356, 357
221, 357, 358
222, 358, 359
223, 359, 360
224, 360, 361
225, 361, 362
226, 362, 363
227, 363, 364
228, 364,  15
229,  17, 365
230, 365, 366
231, 366, 367
232, 367, 368
233, 368, 369
234, 369, 370
235, 370, 371
236, 371, 372
237, 372, 373
238, 373, 374
239, 374, 375
240, 375, 376
241, 376, 377
242, 377, 378
243, 378, 379
244, 379,  16
245,  18, 380
246, 380, 381
247, 381, 382
248, 382, 383
249, 383, 384
250, 384, 385
251, 385, 386
252, 386, 387
253, 387, 388
254, 388, 389
255, 389, 390
256, 390, 391
257, 391, 392
258, 392, 393
259, 393, 394
260, 394,  17
261,  19, 395
262, 395, 396
263, 396, 397
264, 397, 398
265, 398, 399
266, 399, 400
267, 400, 401
268, 401, 402
269, 402, 403
270, 403, 404
271, 404, 405
272, 405, 406
273, 406, 407
274, 407, 408
275, 408, 409
276, 409,  18
277,  20, 410
278, 410, 411
279, 411, 412
280, 412, 413
281, 413, 414
282, 414, 415
283, 415, 416
284, 416, 417
285, 417, 418
286, 418, 419
287, 419, 420
288, 420, 421
289, 421, 422
290, 422, 423
291, 423, 424
292, 424,  19
293,  21, 425
294, 425, 426
295, 426, 427
296, 427, 428
297, 428, 429
298, 429, 430
299, 430, 431
300, 431,  20
301,  22, 432
302, 432, 433
303, 433, 434
304, 434, 435
305, 435, 436
306, 436, 437
307, 437, 438
308, 438,  21
309,  23, 439
310, 439, 440
311, 440, 441
312, 441, 442
313, 442, 443
314, 443, 444
315, 444, 445
316, 445, 446
317, 446, 447
318, 447, 448
319, 448, 449
320, 449, 450
321, 450, 451
322, 451, 452
323, 452, 453
324, 453,  22
325,  24, 454
326, 454, 455
327, 455, 456
328, 456, 457
329, 457, 458
330, 458, 459
331, 459, 460
332, 460, 461
333, 461, 462
334, 462, 463
335, 463, 464
336, 464, 465
337, 465, 466
338, 466, 467
339, 467, 468
340, 468,  23
341,  25, 469
342, 469, 470
343, 470, 471
344, 471, 472
345, 472, 473
346, 473, 474
347, 474, 475
348, 475, 476
349, 476, 477
350, 477, 478
351, 478, 479
352, 479, 480
353, 480, 481
354, 481, 482
355, 482, 483
356, 483,  24
357,  26, 484
358, 484, 485
359, 485, 486
360, 486, 487
361, 487, 488
362, 488, 489
363, 489, 490
364, 490, 491
365, 491, 492
366, 492, 493
367, 493, 494
368, 494, 495
369, 495, 496
370, 496, 497
371, 497, 498
372, 498,  25
373,  27, 499
374, 499, 500
375, 500, 501
376, 501, 502
377, 502, 503
378, 503, 504
379, 504, 505
380, 505, 506
381, 506, 507
382, 507, 508
383, 508, 509
384, 509, 510
385, 510, 511
386, 511, 512
387, 512, 513
388, 513,  26
389,  28, 514
390, 514, 515
391, 515, 516
392, 516, 517
393, 517, 518
394, 518, 519
395, 519, 520
396, 520, 521
397, 521, 522
398, 522, 523
399, 523, 524
400, 524, 525
401, 525, 526
402, 526, 527
403, 527, 528
404, 528,  27
405,  29, 529
406, 529, 530
407, 530, 531
408, 531, 532
409, 532, 533
410, 533, 534
411, 534, 535
412, 535, 536
413, 536, 537
414, 537, 538
415, 538, 539
416, 539, 540
417, 540, 541
418, 541, 542
419, 542, 543
420, 543,  28
421,  30, 544
422, 544, 545
423, 545, 546
424, 546, 547
425, 547, 548
426, 548, 549
427, 549, 550
428, 550, 551
429, 551, 552
430, 552, 553
431, 553, 554
432, 554, 555
433, 555, 556
434, 556, 557
435, 557, 558
436, 558,  29
437,  31, 559
438, 559, 560
439, 560, 561
440, 561, 562
441, 562, 563
442, 563, 564
443, 564, 565
444, 565, 566
445, 566, 567
446, 567, 568
447, 568, 569
448, 569, 570
449, 570, 571
450, 571, 572
451, 572, 573
452, 573,  30
453,  32, 574
454, 574, 575
455, 575, 576
456, 576, 577
457, 577, 578
458, 578, 579
459, 579, 580
460, 580, 581
461, 581, 582
462, 582, 583
463, 583, 584
464, 584, 585
465, 585, 586
466, 586, 587
467, 587, 588
468, 588,  31
469,  33, 589
470, 589, 590
471, 590, 591
472, 591, 592
473, 592, 593
474, 593, 594
475, 594, 595
476, 595,  32
477,  33, 596
478, 596, 597
479, 597, 598
480, 598, 599
481, 599, 600
482, 600, 601
483, 601, 602
484, 602, 603
485, 603, 604
486, 604,  34
487,  35, 605
488, 605, 606
489, 606, 607
490, 607, 608
491, 608, 609
492, 609, 610
493, 610, 611
494, 611, 612
495, 612, 613
496, 613, 614
497, 614, 615
498, 615, 616
499, 616,  11
500,  36, 617
501, 617, 618
502, 618, 619
503, 619, 620
504, 620, 621
505, 621, 622
506, 622, 623
507, 623, 624
508, 624, 625
509, 625, 626
510, 626, 627
511, 627, 628
512, 628, 629
513, 629, 630
514, 630, 631
515, 631, 632
516, 632, 633
517, 633, 634
518, 634, 635
519, 635,  35
520,  37, 636
521, 636, 637
522, 637, 638
523, 638, 639
524, 639, 640
525, 640, 641
526, 641, 642
527, 642, 643
528, 643, 644
529, 644, 645
530, 645, 646
531, 646, 647
532, 647,  36
533,  38, 648
534, 648, 649
535, 649, 650
536, 650, 651
537, 651, 652
538, 652, 653
539, 653,  37
540,  39, 654
541, 654, 655
542, 655, 656
543, 656, 657
544, 657, 658
545, 658, 659
546, 659, 660
547, 660, 661
548, 661, 662
549, 662,  38
550,  15, 663
551, 663, 664
552, 664, 665
553, 665, 666
554, 666, 667
555, 667, 668
556, 668, 669
557, 669, 670
558, 670, 671
559, 671,  40
560,  41, 672
561, 672, 673
562, 673, 674
563, 674, 675
564, 675, 676
565, 676, 677
566, 677,  15
567,  42, 678
568, 678, 679
569, 679, 680
570, 680, 681
571, 681, 682
572, 682, 683
573, 683, 684
574, 684, 685
575, 685, 686
576, 686, 687
577, 687, 688
578, 688, 689
579, 689,  41
580,  43, 690
581, 690, 691
582, 691, 692
583, 692, 693
584, 693, 694
585, 694, 695
586, 695, 696
587, 696, 697
588, 697, 698
589, 698, 699
590, 699, 700
591, 700, 701
592, 701, 702
593, 702, 703
594, 703, 704
595, 704, 705
596, 705, 706
597, 706, 707
598, 707, 708
599, 708,  42
600,  44, 709
601, 709, 710
602, 710, 711
603, 711, 712
604, 712, 713
605, 713, 714
606, 714, 715
607, 715, 716
608, 716, 717
609, 717, 718
610, 718, 719
611, 719, 720
612, 720,  43
613,  45, 721
614, 721, 722
615, 722, 723
616, 723, 724
617, 724, 725
618, 725, 726
619, 726,  44
620,  46, 727
621, 727, 728
622, 728, 729
623, 729, 730
624, 730, 731
625, 731, 732
626, 732, 733
627, 733, 734
628, 734, 735
629, 735,  45
630,  21, 736
631, 736, 737
632, 737, 738
633, 738, 739
634, 739, 740
635, 740, 741
636, 741, 742
637, 742, 743
638, 743, 744
639, 744,  47
640,  48, 745
641, 745, 746
642, 746, 747
643, 747, 748
644, 748, 749
645, 749, 750
646, 750,  21
647,  49, 751
648, 751, 752
649, 752, 753
650, 753, 754
651, 754, 755
652, 755, 756
653, 756, 757
654, 757, 758
655, 758, 759
656, 759, 760
657, 760, 761
658, 761, 762
659, 762,  48
660,  50, 763
661, 763, 764
662, 764, 765
663, 765, 766
664, 766, 767
665, 767, 768
666, 768, 769
667, 769, 770
668, 770, 771
669, 771, 772
670, 772, 773
671, 773, 774
672, 774, 775
673, 775, 776
674, 776, 777
675, 777, 778
676, 778, 779
677, 779, 780
678, 780, 781
679, 781,  49
680,  51, 782
681, 782, 783
682, 783, 784
683, 784, 785
684, 785, 786
685, 786, 787
686, 787, 788
687, 788, 789
688, 789, 790
689, 790, 791
690, 791, 792
691, 792, 793
692, 793,  50
693,  52, 794
694, 794, 795
695, 795, 796
696, 796, 797
697, 797, 798
698, 798, 799
699, 799,  51
700,  53, 800
701, 800, 801
702, 801, 802
703, 802, 803
704, 803, 804
705, 804, 805
706, 805, 806
707, 806, 807
708, 807, 808
709, 808,  52
710,  27, 809
711, 809, 810
712, 810, 811
713, 811, 812
714, 812, 813
715, 813, 814
716, 814, 815
717, 815, 816
718, 816, 817
719, 817,  54
720,  55, 818
721, 818, 819
722, 819, 820
723, 820, 821
724, 821, 822
725, 822, 823
726, 823,  27
727,  56, 824
728, 824, 825
729, 825, 826
730, 826, 827
731, 827, 828
732, 828, 829
733, 829, 830
734, 830, 831
735, 831, 832
736, 832, 833
737, 833, 834
738, 834, 835
739, 835,  55
740,  57, 836
741, 836, 837
742, 837, 838
743, 838, 839
744, 839, 840
745, 840, 841
746, 841, 842
747, 842, 843
748, 843, 844
749, 844, 845
750, 845, 846
751, 846, 847
752, 847, 848
753, 848, 849
754, 849, 850
755, 850, 851
756, 851, 852
757, 852, 853
758, 853, 854
759, 854,  56
760,  58, 855
761, 855, 856
762, 856, 857
763, 857, 858
764, 858, 859
765, 859, 860
766, 860, 861
767, 861, 862
768, 862, 863
769, 863, 864
770, 864, 865
771, 865, 866
772, 866,  57
773,  59, 867
774, 867, 868
775, 868, 869
776, 869, 870
777, 870, 871
778, 871, 872
779, 872,  58
780,  60, 873
781, 873, 874
782, 874, 875
783, 875, 876
784, 876, 877
785, 877, 878
786, 878, 879
787, 879, 880
788, 880, 881
789, 881,  59
790,  61, 882
791, 882, 883
792, 883, 884
793, 884, 885
794, 885, 886
795, 886, 887
796, 887,  33
797,  62, 888
798, 888, 889
799, 889, 890
800, 890, 891
801, 891, 892
802, 892, 893
803, 893, 894
804, 894, 895
805, 895, 896
806, 896, 897
807, 897, 898
808, 898, 899
809, 899,  61
810,  63, 900
811, 900, 901
812, 901, 902
813, 902, 903
814, 903, 904
815, 904, 905
816, 905, 906
817, 906, 907
818, 907, 908
819, 908, 909
820, 909, 910
821, 910, 911
822, 911, 912
823, 912, 913
824, 913, 914
825, 914, 915
826, 915, 916
827, 916, 917
828, 917, 918
829, 918,  62
830,  64, 919
831, 919, 920
832, 920, 921
833, 921, 922
834, 922, 923
835, 923, 924
836, 924, 925
837, 925, 926
838, 926, 927
839, 927, 928
840, 928, 929
841, 929, 930
842, 930,  63
843,  65, 931
844, 931, 932
845, 932, 933
846, 933, 934
847, 934, 935
848, 935, 936
849, 936,  64
850,  66, 937
851, 937, 938
852, 938, 939
853, 939, 940
854, 940, 941
855, 941, 942
856, 942, 943
857, 943, 944
858, 944, 945
859, 945,  65
860,  67, 946
861, 946, 947
862, 947, 948
863, 948, 949
864, 949, 950
865, 950, 951
866, 951, 952
867, 952,  35
868,  68, 953
869, 953, 954
870, 954, 955
871, 955, 956
872, 956, 957
873, 957, 958
874, 958, 959
875, 959, 960
876, 960, 961
877, 961, 962
878, 962, 963
879, 963, 964
880, 964, 965
881, 965, 966
882, 966, 967
883, 967,  67
884,  69, 968
885, 968, 969
886, 969, 970
887, 970, 971
888, 971, 972
889, 972, 973
890, 973, 974
891, 974, 975
892, 975, 976
893, 976, 977
894, 977, 978
895, 978, 979
896, 979, 980
897, 980, 981
898, 981, 982
899, 982,  68
900,  70, 983
901, 983, 984
902, 984, 985
903, 985, 986
904, 986, 987
905, 987, 988
906, 988, 989
907, 989, 990
908, 990, 991
909, 991, 992
910, 992, 993
911, 993, 994
912, 994, 995
913, 995, 996
914, 996, 997
915, 997,  69
916,   71,  998
917,  998,  999
918,  999, 1000
919, 1000, 1001
920, 1001, 1002
921, 1002, 1003
922, 1003, 1004
923, 1004, 1005
924, 1005, 1006
925, 1006, 1007
926, 1007, 1008
927, 1008, 1009
928, 1009, 1010
929, 1010, 1011
930, 1011, 1012
931, 1012,   70
932,   42, 1013
933, 1013, 1014
934, 1014, 1015
935, 1015, 1016
936, 1016, 1017
937, 1017, 1018
938, 1018, 1019
939, 1019, 1020
940, 1020, 1021
941, 1021, 1022
942, 1022, 1023
943, 1023, 1024
944, 1024, 1025
945, 1025, 1026
946, 1026, 1027
947, 1027,   71
948,   72, 1028
949, 1028, 1029
950, 1029, 1030
951, 1030, 1031
952, 1031, 1032
953, 1032, 1033
954, 1033, 1034
955, 1034, 1035
956, 1035, 1036
957, 1036, 1037
958, 1037, 1038
959, 1038, 1039
960, 1039, 1040
961, 1040, 1041
962, 1041, 1042
963, 1042,   42
964,   73, 1043
965, 1043, 1044
966, 1044, 1045
967, 1045, 1046
968, 1046, 1047
969, 1047, 1048
970, 1048, 1049
971, 1049, 1050
972, 1050, 1051
973, 1051, 1052
974, 1052, 1053
975, 1053, 1054
976, 1054, 1055
977, 1055, 1056
978, 1056, 1057
979, 1057,   72
980,   74, 1058
981, 1058, 1059
982, 1059, 1060
983, 1060, 1061
984, 1061, 1062
985, 1062, 1063
986, 1063, 1064
987, 1064, 1065
988, 1065, 1066
989, 1066, 1067
990, 1067, 1068
991, 1068, 1069
992, 1069, 1070
993, 1070, 1071
994, 1071, 1072
995, 1072,   73
 996,   75, 1073
 997, 1073, 1074
 998, 1074, 1075
 999, 1075, 1076
1000, 1076, 1077
1001, 1077, 1078
1002, 1078, 1079
1003, 1079, 1080
1004, 1080, 1081
1005, 1081, 1082
1006, 1082, 1083
1007, 1083, 1084
1008, 1084, 1085
1009, 1085, 1086
1010, 1086, 1087
1011, 1087,   74
1012,   76, 1088
1013, 1088, 1089
1014, 1089, 1090
1015, 1090, 1091
1016, 1091, 1092
1017, 1092, 1093
1018, 1093, 1094
1019, 1094, 1095
1020, 1095, 1096
1021, 1096, 1097
1022, 1097, 1098
1023, 1098, 1099
1024, 1099, 1100
1025, 1100, 1101
1026, 1101, 1102
1027, 1102,   75
1028,   49, 1103
1029, 1103, 1104
1030, 1104, 1105
1031, 1105, 1106
1032, 1106, 1107
1033, 1107, 1108
1034, 1108, 1109
1035, 1109,   76
1036,   77, 1110
1037, 1110, 1111
1038, 1111, 1112
1039, 1112, 1113
1040, 1113, 1114
1041, 1114, 1115
1042, 1115, 1116
1043, 1116,   49
1044,   78, 1117
1045, 1117, 1118
1046, 1118, 1119
1047, 1119, 1120
1048, 1120, 1121
1049, 1121, 1122
1050, 1122, 1123
1051, 1123, 1124
1052, 1124, 1125
1053, 1125, 1126
1054, 1126, 1127
1055, 1127, 1128
1056, 1128, 1129
1057, 1129, 1130
1058, 1130, 1131
1059, 1131,   77
1060,   79, 1132
1061, 1132, 1133
1062, 1133, 1134
1063, 1134, 1135
1064, 1135, 1136
1065, 1136, 1137
1066, 1137, 1138
1067, 1138, 1139
1068, 1139, 1140
1069, 1140, 1141
1070, 1141, 1142
1071, 1142, 1143
1072, 1143, 1144
1073, 1144, 1145
1074, 1145, 1146
1075, 1146,   78
1076,   80, 1147
1077, 1147, 1148
1078, 1148, 1149
1079, 1149, 1150
1080, 1150, 1151
1081, 1151, 1152
1082, 1152, 1153
1083, 1153, 1154
1084, 1154, 1155
1085, 1155, 1156
1086, 1156, 1157
1087, 1157, 1158
1088, 1158, 1159
1089, 1159, 1160
1090, 1160, 1161
1091, 1161,   79
1092,   81, 1162
1093, 1162, 1163
1094, 1163, 1164
1095, 1164, 1165
1096, 1165, 1166
1097, 1166, 1167
1098, 1167, 1168
1099, 1168, 1169
1100, 1169, 1170
1101, 1170, 1171
1102, 1171, 1172
1103, 1172, 1173
1104, 1173, 1174
1105, 1174, 1175
1106, 1175, 1176
1107, 1176,   80
1108,   56, 1177
1109, 1177, 1178
1110, 1178, 1179
1111, 1179, 1180
1112, 1180, 1181
1113, 1181, 1182
1114, 1182, 1183
1115, 1183, 1184
1116, 1184, 1185
1117, 1185, 1186
1118, 1186, 1187
1119, 1187, 1188
1120, 1188, 1189
1121, 1189, 1190
1122, 1190, 1191
1123, 1191,   81
1124,   82, 1192
1125, 1192, 1193
1126, 1193, 1194
1127, 1194, 1195
1128, 1195, 1196
1129, 1196, 1197
1130, 1197, 1198
1131, 1198, 1199
1132, 1199, 1200
1133, 1200, 1201
1134, 1201, 1202
1135, 1202, 1203
1136, 1203, 1204
1137, 1204, 1205
1138, 1205, 1206
1139, 1206,   56
1140,   83, 1207
1141, 1207, 1208
1142, 1208, 1209
1143, 1209, 1210
1144, 1210, 1211
1145, 1211, 1212
1146, 1212, 1213
1147, 1213, 1214
1148, 1214, 1215
1149, 1215, 1216
1150, 1216, 1217
1151, 1217, 1218
1152, 1218, 1219
1153, 1219, 1220
1154, 1220, 1221
1155, 1221,   82
1156,   84, 1222
1157, 1222, 1223
1158, 1223, 1224
1159, 1224, 1225
1160, 1225, 1226
1161, 1226, 1227
1162, 1227, 1228
1163, 1228, 1229
1164, 1229, 1230
1165, 1230, 1231
1166, 1231, 1232
1167, 1232, 1233
1168, 1233, 1234
1169, 1234, 1235
1170, 1235, 1236
1171, 1236,   83
1172,   85, 1237
1173, 1237, 1238
1174, 1238, 1239
1175, 1239, 1240
1176, 1240, 1241
1177, 1241, 1242
1178, 1242, 1243
1179, 1243, 1244
1180, 1244, 1245
1181, 1245, 1246
1182, 1246, 1247
1183, 1247, 1248
1184, 1248, 1249
1185, 1249, 1250
1186, 1250, 1251
1187, 1251,   84
1188,   86, 1252
1189, 1252, 1253
1190, 1253, 1254
1191, 1254, 1255
1192, 1255, 1256
1193, 1256, 1257
1194, 1257, 1258
1195, 1258, 1259
1196, 1259, 1260
1197, 1260, 1261
1198, 1261, 1262
1199, 1262, 1263
1200, 1263, 1264
1201, 1264, 1265
1202, 1265, 1266
1203, 1266,   85
1204,   62, 1267
1205, 1267, 1268
1206, 1268, 1269
1207, 1269, 1270
1208, 1270, 1271
1209, 1271, 1272
1210, 1272, 1273
1211, 1273,   86
1212,   87, 1274
1213, 1274, 1275
1214, 1275, 1276
1215, 1276, 1277
1216, 1277, 1278
1217, 1278, 1279
1218, 1279, 1280
1219, 1280,   36
1220,   88, 1281
1221, 1281, 1282
1222, 1282, 1283
1223, 1283, 1284
1224, 1284, 1285
1225, 1285, 1286
1226, 1286, 1287
1227, 1287, 1288
1228, 1288, 1289
1229, 1289, 1290
1230, 1290, 1291
1231, 1291, 1292
1232, 1292, 1293
1233, 1293, 1294
1234, 1294, 1295
1235, 1295,   87
1236,   89, 1296
1237, 1296, 1297
1238, 1297, 1298
1239, 1298, 1299
1240, 1299, 1300
1241, 1300, 1301
1242, 1301, 1302
1243, 1302, 1303
1244, 1303, 1304
1245, 1304, 1305
1246, 1305, 1306
1247, 1306, 1307
1248, 1307, 1308
1249, 1308, 1309
1250, 1309, 1310
1251, 1310,   88
1252,   90, 1311
1253, 1311, 1312
1254, 1312, 1313
1255, 1313, 1314
1256, 1314, 1315
1257, 1315, 1316
1258, 1316, 1317
1259, 1317, 1318
1260, 1318, 1319
1261, 1319, 1320
1262, 1320, 1321
1263, 1321, 1322
1264, 1322, 1323
1265, 1323, 1324
1266, 1324, 1325
1267, 1325,   89
1268,   91, 1326
1269, 1326, 1327
1270, 1327, 1328
1271, 1328, 1329
1272, 1329, 1330
1273, 1330, 1331
1274, 1331, 1332
1275, 1332, 1333
1276, 1333, 1334
1277, 1334, 1335
1278, 1335, 1336
1279, 1336, 1337
1280, 1337, 1338
1281, 1338, 1339
1282, 1339, 1340
1283, 1340,   90
1284,   43, 1341
1285, 1341, 1342
1286, 1342, 1343
1287, 1343, 1344
1288, 1344, 1345
1289, 1345, 1346
1290, 1346, 1347
1291, 1347, 1348
1292, 1348, 1349
1293, 1349, 1350
1294, 1350, 1351
1295, 1351, 1352
1296, 1352, 1353
1297, 1353, 1354
1298, 1354, 1355
1299, 1355,   91
1300,   92, 1356
1301, 1356, 1357
1302, 1357, 1358
1303, 1358, 1359
1304, 1359, 1360
1305, 1360, 1361
1306, 1361, 1362
1307, 1362, 1363
1308, 1363, 1364
1309, 1364, 1365
1310, 1365, 1366
1311, 1366, 1367
1312, 1367, 1368
1313, 1368, 1369
1314, 1369, 1370
1315, 1370,   43
1316,   93, 1371
1317, 1371, 1372
1318, 1372, 1373
1319, 1373, 1374
1320, 1374, 1375
1321, 1375, 1376
1322, 1376, 1377
1323, 1377, 1378
1324, 1378, 1379
1325, 1379, 1380
1326, 1380, 1381
1327, 1381, 1382
1328, 1382, 1383
1329, 1383, 1384
1330, 1384, 1385
1331, 1385,   92
1332,   94, 1386
1333, 1386, 1387
1334, 1387, 1388
1335, 1388, 1389
1336, 1389, 1390
1337, 1390, 1391
1338, 1391, 1392
1339, 1392, 1393
1340, 1393, 1394
1341, 1394, 1395
1342, 1395, 1396
1343, 1396, 1397
1344, 1397, 1398
1345, 1398, 1399
1346, 1399, 1400
1347, 1400,   93
1348,   95, 1401
1349, 1401, 1402
1350, 1402, 1403
1351, 1403, 1404
1352, 1404, 1405
1353, 1405, 1406
1354, 1406, 1407
1355, 1407, 1408
1356, 1408, 1409
1357, 1409, 1410
1358, 1410, 1411
1359, 1411, 1412
1360, 1412, 1413
1361, 1413, 1414
1362, 1414, 1415
1363, 1415,   94
1364,   96, 1416
1365, 1416, 1417
1366, 1417, 1418
1367, 1418, 1419
1368, 1419, 1420
1369, 1420, 1421
1370, 1421, 1422
1371, 1422, 1423
1372, 1423, 1424
1373, 1424, 1425
1374, 1425, 1426
1375, 1426, 1427
1376, 1427, 1428
1377, 1428, 1429
1378, 1429, 1430
1379, 1430,   95
1380,   50, 1431
1381, 1431, 1432
1382, 1432, 1433
1383, 1433, 1434
1384, 1434, 1435
1385, 1435, 1436
1386, 1436, 1437
1387, 1437,   96
1388,   97, 1438
1389, 1438, 1439
1390, 1439, 1440
1391, 1440, 1441
1392, 1441, 1442
1393, 1442, 1443
1394, 1443, 1444
1395, 1444,   50
1396,   98, 1445
1397, 1445, 1446
1398, 1446, 1447
1399, 1447, 1448
1400, 1448, 1449
1401, 1449, 1450
1402, 1450, 1451
1403, 1451, 1452
1404, 1452, 1453
1405, 1453, 1454
1406, 1454, 1455
1407, 1455, 1456
1408, 1456, 1457
1409, 1457, 1458
1410, 1458, 1459
1411, 1459,   97
1412,   99, 1460
1413, 1460, 1461
1414, 1461, 1462
1415, 1462, 1463
1416, 1463, 1464
1417, 1464, 1465
1418, 1465, 1466
1419, 1466, 1467
1420, 1467, 1468
1421, 1468, 1469
1422, 1469, 1470
1423, 1470, 1471
1424, 1471, 1472
1425, 1472, 1473
1426, 1473, 1474
1427, 1474,   98
1428,  100, 1475
1429, 1475, 1476
1430, 1476, 1477
1431, 1477, 1478
1432, 1478, 1479
1433, 1479, 1480
1434, 1480, 1481
1435, 1481, 1482
1436, 1482, 1483
1437, 1483, 1484
1438, 1484, 1485
1439, 1485, 1486
1440, 1486, 1487
1441, 1487, 1488
1442, 1488, 1489
1443, 1489,   99
1444,  101, 1490
1445, 1490, 1491
1446, 1491, 1492
1447, 1492, 1493
1448, 1493, 1494
1449, 1494, 1495
1450, 1495, 1496
1451, 1496, 1497
1452, 1497, 1498
1453, 1498, 1499
1454, 1499, 1500
1455, 1500, 1501
1456, 1501, 1502
1457, 1502, 1503
1458, 1503, 1504
1459, 1504,  100
1460,   57, 1505
1461, 1505, 1506
1462, 1506, 1507
1463, 1507, 1508
1464, 1508, 1509
1465, 1509, 1510
1466, 1510, 1511
1467, 1511, 1512
1468, 1512, 1513
1469, 1513, 1514
1470, 1514, 1515
1471, 1515, 1516
1472, 1516, 1517
1473, 1517, 1518
1474, 1518, 1519
1475, 1519,  101
1476,  102, 1520
1477, 1520, 1521
1478, 1521, 1522
1479, 1522, 1523
1480, 1523, 1524
1481, 1524, 1525
1482, 1525, 1526
1483, 1526, 1527
1484, 1527, 1528
1485, 1528, 1529
1486, 1529, 1530
1487, 1530, 1531
1488, 1531, 1532
1489, 1532, 1533
1490, 1533, 1534
1491, 1534,   57
1492,  103, 1535
1493, 1535, 1536
1494, 1536, 1537
1495, 1537, 1538
1496, 1538, 1539
1497, 1539, 1540
1498, 1540, 1541
1499, 1541, 1542
1500, 1542, 1543
1501, 1543, 1544
1502, 1544, 1545
1503, 1545, 1546
1504, 1546, 1547
1505, 1547, 1548
1506, 1548, 1549
1507, 1549,  102
1508,  104, 1550
1509, 1550, 1551
1510, 1551, 1552
1511, 1552, 1553
1512, 1553, 1554
1513, 1554, 1555
1514, 1555, 1556
1515, 1556, 1557
1516, 1557, 1558
1517, 1558, 1559
1518, 1559, 1560
1519, 1560, 1561
1520, 1561, 1562
1521, 1562, 1563
1522, 1563, 1564
1523, 1564,  103
1524,  105, 1565
1525, 1565, 1566
1526, 1566, 1567
1527, 1567, 1568
1528, 1568, 1569
1529, 1569, 1570
1530, 1570, 1571
1531, 1571, 1572
1532, 1572, 1573
1533, 1573, 1574
1534, 1574, 1575
1535, 1575, 1576
1536, 1576, 1577
1537, 1577, 1578
1538, 1578, 1579
1539, 1579,  104
1540,  106, 1580
1541, 1580, 1581
1542, 1581, 1582
1543, 1582, 1583
1544, 1583, 1584
1545, 1584, 1585
1546, 1585, 1586
1547, 1586, 1587
1548, 1587, 1588
1549, 1588, 1589
1550, 1589, 1590
1551, 1590, 1591
1552, 1591, 1592
1553, 1592, 1593
1554, 1593, 1594
1555, 1594,  105
1556,   63, 1595
1557, 1595, 1596
1558, 1596, 1597
1559, 1597, 1598
1560, 1598, 1599
1561, 1599, 1600
1562, 1600, 1601
1563, 1601,  106
1564,  107, 1602
1565, 1602, 1603
1566, 1603, 1604
1567, 1604, 1605
1568, 1605, 1606
1569, 1606, 1607
1570, 1607, 1608
1571, 1608,   38
1572,  108, 1609
1573, 1609, 1610
1574, 1610, 1611
1575, 1611, 1612
1576, 1612, 1613
1577, 1613, 1614
1578, 1614, 1615
1579, 1615, 1616
1580, 1616, 1617
1581, 1617, 1618
1582, 1618, 1619
1583, 1619, 1620
1584, 1620, 1621
1585, 1621, 1622
1586, 1622, 1623
1587, 1623,  107
1588,  109, 1624
1589, 1624, 1625
1590, 1625, 1626
1591, 1626, 1627
1592, 1627, 1628
1593, 1628, 1629
1594, 1629, 1630
1595, 1630, 1631
1596, 1631, 1632
1597, 1632, 1633
1598, 1633, 1634
1599, 1634, 1635
1600, 1635, 1636
1601, 1636, 1637
1602, 1637, 1638
1603, 1638,  108
1604,  110, 1639
1605, 1639, 1640
1606, 1640, 1641
1607, 1641, 1642
1608, 1642, 1643
1609, 1643, 1644
1610, 1644, 1645
1611, 1645, 1646
1612, 1646, 1647
1613, 1647, 1648
1614, 1648, 1649
1615, 1649, 1650
1616, 1650, 1651
1617, 1651, 1652
1618, 1652, 1653
1619, 1653,  109
1620,  111, 1654
1621, 1654, 1655
1622, 1655, 1656
1623, 1656, 1657
1624, 1657, 1658
1625, 1658, 1659
1626, 1659, 1660
1627, 1660, 1661
1628, 1661, 1662
1629, 1662, 1663
1630, 1663, 1664
1631, 1664, 1665
1632, 1665, 1666
1633, 1666, 1667
1634, 1667, 1668
1635, 1668,  110
1636,   45, 1669
1637, 1669, 1670
1638, 1670, 1671
1639, 1671, 1672
1640, 1672, 1673
1641, 1673, 1674
1642, 1674, 1675
1643, 1675, 1676
1644, 1676, 1677
1645, 1677, 1678
1646, 1678, 1679
1647, 1679, 1680
1648, 1680, 1681
1649, 1681, 1682
1650, 1682, 1683
1651, 1683,  111
1652,  112, 1684
1653, 1684, 1685
1654, 1685, 1686
1655, 1686, 1687
1656, 1687, 1688
1657, 1688, 1689
1658, 1689, 1690
1659, 1690, 1691
1660, 1691, 1692
1661, 1692, 1693
1662, 1693, 1694
1663, 1694, 1695
1664, 1695, 1696
1665, 1696, 1697
1666, 1697, 1698
1667, 1698,   45
1668,  113, 1699
1669, 1699, 1700
1670, 1700, 1701
1671, 1701, 1702
1672, 1702, 1703
1673, 1703, 1704
1674, 1704, 1705
1675, 1705, 1706
1676, 1706, 1707
1677, 1707, 1708
1678, 1708, 1709
1679, 1709, 1710
1680, 1710, 1711
1681, 1711, 1712
1682, 1712, 1713
1683, 1713,  112
1684,  114, 1714
1685, 1714, 1715
1686, 1715, 1716
1687, 1716, 1717
1688, 1717, 1718
1689, 1718, 1719
1690, 1719, 1720
1691, 1720, 1721
1692, 1721, 1722
1693, 1722, 1723
1694, 1723, 1724
1695, 1724, 1725
1696, 1725, 1726
1697, 1726, 1727
1698, 1727, 1728
1699, 1728,  113
1700,  115, 1729
1701, 1729, 1730
1702, 1730, 1731
1703, 1731, 1732
1704, 1732, 1733
1705, 1733, 1734
1706, 1734, 1735
1707, 1735, 1736
1708, 1736, 1737
1709, 1737, 1738
1710, 1738, 1739
1711, 1739, 1740
1712, 1740, 1741
1713, 1741, 1742
1714, 1742, 1743
1715, 1743,  114
1716,  116, 1744
1717, 1744, 1745
1718, 1745, 1746
1719, 1746, 1747
1720, 1747, 1748
1721, 1748, 1749
1722, 1749, 1750
1723, 1750, 1751
1724, 1751, 1752
1725, 1752, 1753
1726, 1753, 1754
1727, 1754, 1755
1728, 1755, 1756
1729, 1756, 1757
1730, 1757, 1758
1731, 1758,  115
1732,   52, 1759
1733, 1759, 1760
1734, 1760, 1761
1735, 1761, 1762
1736, 1762, 1763
1737, 1763, 1764
1738, 1764, 1765
1739, 1765,  116
1740,  117, 1766
1741, 1766, 1767
1742, 1767, 1768
1743, 1768, 1769
1744, 1769, 1770
1745, 1770, 1771
1746, 1771, 1772
1747, 1772,   52
1748,  118, 1773
1749, 1773, 1774
1750, 1774, 1775
1751, 1775, 1776
1752, 1776, 1777
1753, 1777, 1778
1754, 1778, 1779
1755, 1779, 1780
1756, 1780, 1781
1757, 1781, 1782
1758, 1782, 1783
1759, 1783, 1784
1760, 1784, 1785
1761, 1785, 1786
1762, 1786, 1787
1763, 1787,  117
1764,  119, 1788
1765, 1788, 1789
1766, 1789, 1790
1767, 1790, 1791
1768, 1791, 1792
1769, 1792, 1793
1770, 1793, 1794
1771, 1794, 1795
1772, 1795, 1796
1773, 1796, 1797
1774, 1797, 1798
1775, 1798, 1799
1776, 1799, 1800
1777, 1800, 1801
1778, 1801, 1802
1779, 1802,  118
1780,  120, 1803
1781, 1803, 1804
1782, 1804, 1805
1783, 1805, 1806
1784, 1806, 1807
1785, 1807, 1808
1786, 1808, 1809
1787, 1809, 1810
1788, 1810, 1811
1789, 1811, 1812
1790, 1812, 1813
1791, 1813, 1814
1792, 1814, 1815
1793, 1815, 1816
1794, 1816, 1817
1795, 1817,  119
1796,  121, 1818
1797, 1818, 1819
1798, 1819, 1820
1799, 1820, 1821
1800, 1821, 1822
1801, 1822, 1823
1802, 1823, 1824
1803, 1824, 1825
1804, 1825, 1826
1805, 1826, 1827
1806, 1827, 1828
1807, 1828, 1829
1808, 1829, 1830
1809, 1830, 1831
1810, 1831, 1832
1811, 1832,  120
1812,   59, 1833
1813, 1833, 1834
1814, 1834, 1835
1815, 1835, 1836
1816, 1836, 1837
1817, 1837, 1838
1818, 1838, 1839
1819, 1839, 1840
1820, 1840, 1841
1821, 1841, 1842
1822, 1842, 1843
1823, 1843, 1844
1824, 1844, 1845
1825, 1845, 1846
1826, 1846, 1847
1827, 1847,  121
1828,  122, 1848
1829, 1848, 1849
1830, 1849, 1850
1831, 1850, 1851
1832, 1851, 1852
1833, 1852, 1853
1834, 1853, 1854
1835, 1854, 1855
1836, 1855, 1856
1837, 1856, 1857
1838, 1857, 1858
1839, 1858, 1859
1840, 1859, 1860
1841, 1860, 1861
1842, 1861, 1862
1843, 1862,   59
1844,  123, 1863
1845, 1863, 1864
1846, 1864, 1865
1847, 1865, 1866
1848, 1866, 1867
1849, 1867, 1868
1850, 1868, 1869
1851, 1869, 1870
1852, 1870, 1871
1853, 1871, 1872
1854, 1872, 1873
1855, 1873, 1874
1856, 1874, 1875
1857, 1875, 1876
1858, 1876, 1877
1859, 1877,  122
1860,  124, 1878
1861, 1878, 1879
1862, 1879, 1880
1863, 1880, 1881
1864, 1881, 1882
1865, 1882, 1883
1866, 1883, 1884
1867, 1884, 1885
1868, 1885, 1886
1869, 1886, 1887
1870, 1887, 1888
1871, 1888, 1889
1872, 1889, 1890
1873, 1890, 1891
1874, 1891, 1892
1875, 1892,  123
1876,  125, 1893
1877, 1893, 1894
1878, 1894, 1895
1879, 1895, 1896
1880, 1896, 1897
1881, 1897, 1898
1882, 1898, 1899
1883, 1899, 1900
1884, 1900, 1901
1885, 1901, 1902
1886, 1902, 1903
1887, 1903, 1904
1888, 1904, 1905
1889, 1905, 1906
1890, 1906, 1907
1891, 1907,  124
1892,  126, 1908
1893, 1908, 1909
1894, 1909, 1910
1895, 1910, 1911
1896, 1911, 1912
1897, 1912, 1913
1898, 1913, 1914
1899, 1914, 1915
1900, 1915, 1916
1901, 1916, 1917
1902, 1917, 1918
1903, 1918, 1919
1904, 1919, 1920
1905, 1920, 1921
1906, 1921, 1922
1907, 1922,  125
1908,   65, 1923
1909, 1923, 1924
1910, 1924, 1925
1911, 1925, 1926
1912, 1926, 1927
1913, 1927, 1928
1914, 1928, 1929
1915, 1929,  126
1916,  127, 1930
1917, 1930, 1931
1918, 1931, 1932
1919, 1932, 1933
1920, 1933, 1934
1921, 1934, 1935
1922, 1935, 1936
1923, 1936, 1937
1924, 1937, 1938
1925, 1938, 1939
1926, 1939, 1940
1927, 1940, 1941
1928, 1941, 1942
1929, 1942, 1943
1930, 1943, 1944
1931, 1944, 1945
1932, 1945, 1946
1933, 1946, 1947
1934, 1947, 1948
1935, 1948, 1949
1936, 1949, 1950
1937, 1950, 1951
1938, 1951, 1952
1939, 1952, 1953
1940, 1953, 1954
1941, 1954, 1955
1942, 1955, 1956
1943, 1956, 1957
1944, 1957, 1958
1945, 1958, 1959
1946, 1959, 1960
1947, 1960, 1961
1948, 1961, 1962
1949, 1962, 1963
1950, 1963, 1964
1951, 1964, 1965
1952, 1965, 1966
1953, 1966, 1967
1954, 1967, 1968
1955, 1968, 1969
1956, 1969, 1970
1957, 1970, 1971
1958, 1971, 1972
1959, 1972,  128
1960,  128, 1973
1961, 1973, 1974
1962, 1974, 1975
1963, 1975, 1976
1964, 1976, 1977
1965, 1977, 1978
1966, 1978, 1979
1967, 1979, 1980
1968, 1980, 1981
1969, 1981, 1982
1970, 1982, 1983
1971, 1983, 1984
1972, 1984, 1985
1973, 1985, 1986
1974, 1986, 1987
1975, 1987, 1988
1976, 1988, 1989
1977, 1989, 1990
1978, 1990, 1991
1979, 1991, 1992
1980, 1992, 1993
1981, 1993, 1994
1982, 1994, 1995
1983, 1995, 1996
1984, 1996, 1997
1985, 1997, 1998
1986, 1998, 1999
1987, 1999, 2000
1988, 2000, 2001
1989, 2001, 2002
1990, 2002, 2003
1991, 2003, 2004
1992, 2004,  129
1993,  127, 2005
1994, 2005, 2006
1995, 2006,  130
1996,  131, 2007
1997, 2007, 2008
1998, 2008, 2009
1999, 2009, 2010
2000, 2010, 2011
2001, 2011, 2012
2002, 2012, 2013
2003, 2013, 2014
2004, 2014, 2015
2005, 2015, 2016
2006, 2016, 2017
2007, 2017, 2018
2008, 2018, 2019
2009, 2019, 2020
2010, 2020, 2021
2011, 2021, 2022
2012, 2022, 2023
2013, 2023, 2024
2014, 2024,  127
2015,  132, 2025
2016, 2025, 2026
2017, 2026, 2027
2018, 2027, 2028
2019, 2028, 2029
2020, 2029, 2030
2021, 2030, 2031
2022, 2031,  128
2023,  133, 2032
2024, 2032, 2033
2025, 2033, 2034
2026, 2034, 2035
2027, 2035, 2036
2028, 2036, 2037
2029, 2037, 2038
2030, 2038, 2039
2031, 2039, 2040
2032, 2040, 2041
2033, 2041, 2042
2034, 2042, 2043
2035, 2043, 2044
2036, 2044, 2045
2037, 2045, 2046
2038, 2046, 2047
2039, 2047, 2048
2040, 2048, 2049
2041, 2049, 2050
2042, 2050, 2051
2043, 2051, 2052
2044, 2052, 2053
2045, 2053, 2054
2046, 2054, 2055
2047, 2055, 2056
2048, 2056, 2057
2049, 2057, 2058
2050, 2058, 2059
2051, 2059, 2060
2052, 2060, 2061
2053, 2061, 2062
2054, 2062, 2063
2055, 2063, 2064
2056, 2064, 2065
2057, 2065, 2066
2058, 2066, 2067
2059, 2067, 2068
2060, 2068, 2069
2061, 2069, 2070
2062, 2070, 2071
2063, 2071, 2072
2064, 2072, 2073
2065, 2073, 2074
2066, 2074,  134
2067,  134, 2075
2068, 2075, 2076
2069, 2076, 2077
2070, 2077, 2078
2071, 2078, 2079
2072, 2079, 2080
2073, 2080, 2081
2074, 2081, 2082
2075, 2082, 2083
2076, 2083, 2084
2077, 2084, 2085
2078, 2085, 2086
2079, 2086, 2087
2080, 2087, 2088
2081, 2088, 2089
2082, 2089, 2090
2083, 2090, 2091
2084, 2091, 2092
2085, 2092, 2093
2086, 2093, 2094
2087, 2094, 2095
2088, 2095, 2096
2089, 2096, 2097
2090, 2097, 2098
2091, 2098, 2099
2092, 2099, 2100
2093, 2100, 2101
2094, 2101, 2102
2095, 2102, 2103
2096, 2103, 2104
2097, 2104, 2105
2098, 2105, 2106
2099, 2106,  135
2100,  133, 2107
2101, 2107, 2108
2102, 2108,  136
2103,  137, 2109
2104, 2109, 2110
2105, 2110, 2111
2106, 2111, 2112
2107, 2112, 2113
2108, 2113, 2114
2109, 2114, 2115
2110, 2115, 2116
2111, 2116, 2117
2112, 2117, 2118
2113, 2118, 2119
2114, 2119, 2120
2115, 2120, 2121
2116, 2121, 2122
2117, 2122, 2123
2118, 2123, 2124
2119, 2124, 2125
2120, 2125, 2126
2121, 2126,  133
2122,  138, 2127
2123, 2127, 2128
2124, 2128, 2129
2125, 2129, 2130
2126, 2130, 2131
2127, 2131, 2132
2128, 2132, 2133
2129, 2133,  134
2130,  139, 2134
2131, 2134, 2135
2132, 2135, 2136
2133, 2136, 2137
2134, 2137, 2138
2135, 2138, 2139
2136, 2139, 2140
2137, 2140, 2141
2138, 2141, 2142
2139, 2142, 2143
2140, 2143, 2144
2141, 2144, 2145
2142, 2145, 2146
2143, 2146, 2147
2144, 2147, 2148
2145, 2148, 2149
2146, 2149, 2150
2147, 2150, 2151
2148, 2151, 2152
2149, 2152, 2153
2150, 2153, 2154
2151, 2154, 2155
2152, 2155, 2156
2153, 2156, 2157
2154, 2157, 2158
2155, 2158, 2159
2156, 2159, 2160
2157, 2160, 2161
2158, 2161, 2162
2159, 2162, 2163
2160, 2163, 2164
2161, 2164, 2165
2162, 2165, 2166
2163, 2166, 2167
2164, 2167, 2168
2165, 2168, 2169
2166, 2169, 2170
2167, 2170, 2171
2168, 2171, 2172
2169, 2172, 2173
2170, 2173, 2174
2171, 2174, 2175
2172, 2175, 2176
2173, 2176,  140
2174,  140, 2177
2175, 2177, 2178
2176, 2178, 2179
2177, 2179, 2180
2178, 2180, 2181
2179, 2181, 2182
2180, 2182, 2183
2181, 2183, 2184
2182, 2184, 2185
2183, 2185, 2186
2184, 2186, 2187
2185, 2187, 2188
2186, 2188, 2189
2187, 2189, 2190
2188, 2190, 2191
2189, 2191, 2192
2190, 2192, 2193
2191, 2193, 2194
2192, 2194, 2195
2193, 2195, 2196
2194, 2196, 2197
2195, 2197, 2198
2196, 2198, 2199
2197, 2199, 2200
2198, 2200, 2201
2199, 2201, 2202
2200, 2202, 2203
2201, 2203, 2204
2202, 2204, 2205
2203, 2205, 2206
2204, 2206, 2207
2205, 2207, 2208
2206, 2208,  141
2207,  139, 2209
2208, 2209, 2210
2209, 2210,  142
2210,  143, 2211
2211, 2211, 2212
2212, 2212, 2213
2213, 2213, 2214
2214, 2214, 2215
2215, 2215, 2216
2216, 2216, 2217
2217, 2217, 2218
2218, 2218, 2219
2219, 2219, 2220
2220, 2220, 2221
2221, 2221, 2222
2222, 2222, 2223
2223, 2223, 2224
2224, 2224, 2225
2225, 2225, 2226
2226, 2226, 2227
2227, 2227, 2228
2228, 2228,  139
2229,  144, 2229
2230, 2229, 2230
2231, 2230, 2231
2232, 2231, 2232
2233, 2232, 2233
2234, 2233, 2234
2235, 2234, 2235
2236, 2235,  140
2237,  145, 2236
2238, 2236, 2237
2239, 2237, 2238
2240, 2238, 2239
2241, 2239, 2240
2242, 2240, 2241
2243, 2241, 2242
2244, 2242, 2243
2245, 2243, 2244
2246, 2244, 2245
2247, 2245, 2246
2248, 2246, 2247
2249, 2247, 2248
2250, 2248, 2249
2251, 2249, 2250
2252, 2250, 2251
2253, 2251, 2252
2254, 2252, 2253
2255, 2253, 2254
2256, 2254, 2255
2257, 2255, 2256
2258, 2256, 2257
2259, 2257, 2258
2260, 2258, 2259
2261, 2259, 2260
2262, 2260, 2261
2263, 2261, 2262
2264, 2262, 2263
2265, 2263, 2264
2266, 2264, 2265
2267, 2265, 2266
2268, 2266, 2267
2269, 2267, 2268
2270, 2268, 2269
2271, 2269, 2270
2272, 2270, 2271
2273, 2271, 2272
2274, 2272, 2273
2275, 2273, 2274
2276, 2274, 2275
2277, 2275, 2276
2278, 2276, 2277
2279, 2277, 2278
2280, 2278,  146
2281,  146, 2279
2282, 2279, 2280
2283, 2280, 2281
2284, 2281, 2282
2285, 2282, 2283
2286, 2283, 2284
2287, 2284, 2285
2288, 2285, 2286
2289, 2286, 2287
2290, 2287, 2288
2291, 2288, 2289
2292, 2289, 2290
2293, 2290, 2291
2294, 2291, 2292
2295, 2292, 2293
2296, 2293, 2294
2297, 2294, 2295
2298, 2295, 2296
2299, 2296, 2297
2300, 2297, 2298
2301, 2298, 2299
2302, 2299, 2300
2303, 2300, 2301
2304, 2301, 2302
2305, 2302, 2303
2306, 2303, 2304
2307, 2304, 2305
2308, 2305, 2306
2309, 2306, 2307
2310, 2307, 2308
2311, 2308, 2309
2312, 2309, 2310
2313, 2310,  147
2314,  145, 2311
2315, 2311, 2312
2316, 2312,  148
2317,  149, 2313
2318, 2313, 2314
2319, 2314, 2315
2320, 2315, 2316
2321, 2316, 2317
2322, 2317, 2318
2323, 2318, 2319
2324, 2319, 2320
2325, 2320, 2321
2326, 2321, 2322
2327, 2322, 2323
2328, 2323, 2324
2329, 2324, 2325
2330, 2325, 2326
2331, 2326, 2327
2332, 2327, 2328
2333, 2328, 2329
2334, 2329, 2330
2335, 2330,  145
2336,  150, 2331
2337, 2331, 2332
2338, 2332, 2333
2339, 2333, 2334
2340, 2334, 2335
2341, 2335, 2336
2342, 2336, 2337
2343, 2337,  146
*Nset, nset=P2
   8,   9,  11,  15,  21,  27,  33,  34,  35,  36,  37,  38,  39,  40,  41,  42
  43,  44,  45,  46,  47,  48,  49,  50,  51,  52,  53,  54,  55,  56,  57,  58
  59,  60,  61,  62,  63,  64,  65,  66, 260, 261, 262, 263, 264, 265, 266, 267
 268, 284, 285, 286, 287, 288, 289, 596, 597, 598, 599, 600, 601, 602, 603, 604
 605, 606, 607, 608, 609, 610, 611, 612, 613, 614, 615, 616, 617, 618, 619, 620
 621, 622, 623, 624, 625, 626, 627, 628, 629, 630, 631, 632, 633, 634, 635, 636
 637, 638, 639, 640, 641, 642, 643, 644, 645, 646, 647, 648, 649, 650, 651, 652
 653, 654, 655, 656, 657, 658, 659, 660, 661, 662, 663, 664, 665, 666, 667, 668
 669, 670, 671, 672, 673, 674, 675, 676, 677, 678, 679, 680, 681, 682, 683, 684
 685, 686, 687, 688, 689, 690, 691, 692, 693, 694, 695, 696, 697, 698, 699, 700
 701, 702, 703, 704, 705, 706, 707, 708, 709, 710, 711, 712, 713, 714, 715, 716
 717, 718, 719, 720, 721, 722, 723, 724, 725, 726, 727, 728, 729, 730, 731, 732
 733, 734, 735, 736, 737, 738, 739, 740, 741, 742, 743, 744, 745, 746, 747, 748
 749, 750, 751, 752, 753, 754, 755, 756, 757, 758, 759, 760, 761, 762, 763, 764
 765, 766, 767, 768, 769, 770, 771, 772, 773, 774, 775, 776, 777, 778, 779, 780
 781, 782, 783, 784, 785, 786, 787, 788, 789, 790, 791, 792, 793, 794, 795, 796
 797, 798, 799, 800, 801, 802, 803, 804, 805, 806, 807, 808, 809, 810, 811, 812
 813, 814, 815, 816, 817, 818, 819, 820, 821, 822, 823, 824, 825, 826, 827, 828
 829, 830, 831, 832, 833, 834, 835, 836, 837, 838, 839, 840, 841, 842, 843, 844
 845, 846, 847, 848, 849, 850, 851, 852, 853, 854, 855, 856, 857, 858, 859, 860
 861, 862, 863, 864, 865, 866, 867, 868, 869, 870, 871, 872, 873, 874, 875, 876
 877, 878, 879, 880, 881, 882, 883, 884, 885, 886, 887, 888, 889, 890, 891, 892
 893, 894, 895, 896, 897, 898, 899, 900, 901, 902, 903, 904, 905, 906, 907, 908
 909, 910, 911, 912, 913, 914, 915, 916, 917, 918, 919, 920, 921, 922, 923, 924
 925, 926, 927, 928, 929, 930, 931, 932, 933, 934, 935, 936, 937, 938, 939, 940
 941, 942, 943, 944, 945
*Elset, elset=P2
 116, 117, 118, 119, 120, 121, 122, 123, 124, 125, 142, 143, 144, 145, 146, 147
 148, 477, 478, 479, 480, 481, 482, 483, 484, 485, 486, 487, 488, 489, 490, 491
 492, 493, 494, 495, 496, 497, 498, 499, 500, 501, 502, 503, 504, 505, 506, 507
 508, 509, 510, 511, 512, 513, 514, 515, 516, 517, 518, 519, 520, 521, 522, 523
 524, 525, 526, 527, 528, 529, 530, 531, 532, 533, 534, 535, 536, 537, 538, 539
 540, 541, 542, 543, 544, 545, 546, 547, 548, 549, 550, 551, 552, 553, 554, 555
 556, 557, 558, 559, 560, 561, 562, 563, 564, 565, 566, 567, 568, 569, 570, 571
 572, 573, 574, 575, 576, 577, 578, 579, 580, 581, 582, 583, 584, 585, 586, 587
 588, 589, 590, 591, 592, 593, 594, 595, 596, 597, 598, 599, 600, 601, 602, 603
 604, 605, 606, 607, 608, 609, 610, 611, 612, 613, 614, 615, 616, 617, 618, 619
 620, 621, 622, 623, 624, 625, 626, 627, 628, 629, 630, 631, 632, 633, 634, 635
 636, 637, 638, 639, 640, 641, 642, 643, 644, 645, 646, 647, 648, 649, 650, 651
 652, 653, 654, 655, 656, 657, 658, 659, 660, 661, 662, 663, 664, 665, 666, 667
 668, 669, 670, 671, 672, 673, 674, 675, 676, 677, 678, 679, 680, 681, 682, 683
 684, 685, 686, 687, 688, 689, 690, 691, 692, 693, 694, 695, 696, 697, 698, 699
 700, 701, 702, 703, 704, 705, 706, 707, 708, 709, 710, 711, 712, 713, 714, 715
 716, 717, 718, 719, 720, 721, 722, 723, 724, 725, 726, 727, 728, 729, 730, 731
 732, 733, 734, 735, 736, 737, 738, 739, 740, 741, 742, 743, 744, 745, 746, 747
 748, 749, 750, 751, 752, 753, 754, 755, 756, 757, 758, 759, 760, 761, 762, 763
 764, 765, 766, 767, 768, 769, 770, 771, 772, 773, 774, 775, 776, 777, 778, 779
 780, 781, 782, 783, 784, 785, 786, 787, 788, 789, 790, 791, 792, 793, 794, 795
 796, 797, 798, 799, 800, 801, 802, 803, 804, 805, 806, 807, 808, 809, 810, 811
 812, 813, 814, 815, 816, 817, 818, 819, 820, 821, 822, 823, 824, 825, 826, 827
 828, 829, 830, 831, 832, 833, 834, 835, 836, 837, 838, 839, 840, 841, 842, 843
 844, 845, 846, 847, 848, 849, 850, 851, 852, 853, 854, 855, 856, 857, 858, 859
*Nset, nset=P3
    1,    4,    5,  127,  130,  131,  133,  136,  137,  139,  142,  143,  145,  148,  149,  226
  227,  228,  229,  230,  231,  232,  233,  234,  235,  236,  237,  238,  239,  240,  241,  242
  243,  244,  245, 2005, 2006, 2007, 2008, 2009, 2010, 2011, 2012, 2013, 2014, 2015, 2016, 2017
 2018, 2019, 2020, 2021, 2022, 2023, 2024, 2107, 2108, 2109, 2110, 2111, 2112, 2113, 2114, 2115
 2116, 2117, 2118, 2119, 2120, 2121, 2122, 2123, 2124, 2125, 2126, 2209, 2210, 2211, 2212, 2213
 2214, 2215, 2216, 2217, 2218, 2219, 2220, 2221, 2222, 2223, 2224, 2225, 2226, 2227, 2228, 2311
 2312, 2313, 2314, 2315, 2316, 2317, 2318, 2319, 2320, 2321, 2322, 2323, 2324, 2325, 2326, 2327
 2328, 2329, 2330
*Elset, elset=P3
   78,   79,   80,   81,   82,   83,   84,   85,   86,   87,   88,   89,   90,   91,   92,   93
   94,   95,   96,   97,   98,   99, 1993, 1994, 1995, 1996, 1997, 1998, 1999, 2000, 2001, 2002
 2003, 2004, 2005, 2006, 2007, 2008, 2009, 2010, 2011, 2012, 2013, 2014, 2100, 2101, 2102, 2103
 2104, 2105, 2106, 2107, 2108, 2109, 2110, 2111, 2112, 2113, 2114, 2115, 2116, 2117, 2118, 2119
 2120, 2121, 2207, 2208, 2209, 2210, 2211, 2212, 2213, 2214, 2215, 2216, 2217, 2218, 2219, 2220
 2221, 2222, 2223, 2224, 2225, 2226, 2227, 2228, 2314, 2315, 2316, 2317, 2318, 2319, 2320, 2321
 2322, 2323, 2324, 2325, 2326, 2327, 2328, 2329, 2330, 2331, 2332, 2333, 2334, 2335
*Nset, nset=P4
    2,    3,    6,  128,  129,  132,  134,  135,  138,  140,  141,  144,  146,  147,  150,  194
  195,  196,  197,  198,  199,  200,  201,  202,  203,  204,  205,  206,  207,  208,  209,  210
  211,  212,  213,  214,  215,  216,  217,  218,  219,  220,  221,  222,  223,  224,  225,  246
  247,  248,  249,  250,  251,  252, 1973, 1974, 1975, 1976, 1977, 1978, 1979, 1980, 1981, 1982
 1983, 1984, 1985, 1986, 1987, 1988, 1989, 1990, 1991, 1992, 1993, 1994, 1995, 1996, 1997, 1998
 1999, 2000, 2001, 2002, 2003, 2004, 2025, 2026, 2027, 2028, 2029, 2030, 2031, 2075, 2076, 2077
 2078, 2079, 2080, 2081, 2082, 2083, 2084, 2085, 2086, 2087, 2088, 2089, 2090, 2091, 2092, 2093
 2094, 2095, 2096, 2097, 2098, 2099, 2100, 2101, 2102, 2103, 2104, 2105, 2106, 2127, 2128, 2129
 2130, 2131, 2132, 2133, 2177, 2178, 2179, 2180, 2181, 2182, 2183, 2184, 2185, 2186, 2187, 2188
 2189, 2190, 2191, 2192, 2193, 2194, 2195, 2196, 2197, 2198, 2199, 2200, 2201, 2202, 2203, 2204
 2205, 2206, 2207, 2208, 2229, 2230, 2231, 2232, 2233, 2234, 2235, 2279, 2280, 2281, 2282, 2283
 2284, 2285, 2286, 2287, 2288, 2289, 2290, 2291, 2292, 2293, 2294, 2295, 2296, 2297, 2298, 2299
 2300, 2301, 2302, 2303, 2304, 2305, 2306, 2307, 2308, 2309, 2310, 2331, 2332, 2333, 2334, 2335
 2336, 2337
*Elset, elset=P4
   45,   46,   47,   48,   49,   50,   51,   52,   53,   54,   55,   56,   57,   58,   59,   60
   61,   62,   63,   64,   65,   66,   67,   68,   69,   70,   71,   72,   73,   74,   75,   76
   77,  100,  101,  102,  103,  104,  105,  106,  107, 1960, 1961, 1962, 1963, 1964, 1965, 1966
 1967, 1968, 1969, 1970, 1971, 1972, 1973, 1974, 1975, 1976, 1977, 1978, 1979, 1980, 1981, 1982
 1983, 1984, 1985, 1986, 1987, 1988, 1989, 1990, 1991, 1992, 2015, 2016, 2017, 2018, 2019, 2020
 2021, 2022, 2067, 2068, 2069, 2070, 2071, 2072, 2073, 2074, 2075, 2076, 2077, 2078, 2079, 2080
 2081, 2082, 2083, 2084, 2085, 2086, 2087, 2088, 2089, 2090, 2091, 2092, 2093, 2094, 2095, 2096
 2097, 2098, 2099, 2122, 2123, 2124, 2125, 2126, 2127, 2128, 2129, 2174, 2175, 2176, 2177, 2178
 2179, 2180, 2181, 2182, 2183, 2184, 2185, 2186, 2187, 2188, 2189, 2190, 2191, 2192, 2193, 2194
 2195, 2196, 2197, 2198, 2199, 2200, 2201, 2202, 2203, 2204, 2205, 2206, 2229, 2230, 2231, 2232
 2233, 2234, 2235, 2236, 2281, 2282, 2283, 2284, 2285, 2286, 2287, 2288, 2289, 2290, 2291, 2292
 2293, 2294, 2295, 2296, 2297, 2298, 2299, 2300, 2301, 2302, 2303, 2304, 2305, 2306, 2307, 2308
 2309, 2310, 2311, 2312, 2313, 2336, 2337, 2338, 2339, 2340, 2341, 2342, 2343
*Nset, nset=P5
    7,    8,   10,   12,   13,   14,   15,   16,   17,   18,   19,   20,   21,   22,   23,   24
   25,   26,   27,   28,   29,   30,   31,   32,   33,   35,   36,   38,   42,   43,   45,   49
   50,   52,   56,   57,   59,   62,   63,   65,   67,   68,   69,   70,   71,   72,   73,   74
   75,   76,   77,   78,   79,   80,   81,   82,   83,   84,   85,   86,   87,   88,   89,   90
   91,   92,   93,   94,   95,   96,   97,   98,   99,  100,  101,  102,  103,  104,  105,  106
  107,  108,  109,  110,  111,  112,  113,  114,  115,  116,  117,  118,  119,  120,  121,  122
  123,  124,  125,  126,  253,  254,  255,  256,  257,  258,  259,  269,  270,  271,  272,  273
  274,  275,  276,  277,  278,  279,  280,  281,  282,  283,  290,  291,  292,  293,  294,  295
  296,  297,  298,  299,  300,  301,  302,  303,  304,  305,  306,  307,  308,  309,  310,  311
  312,  313,  314,  315,  316,  317,  318,  319,  320,  321,  322,  323,  324,  325,  326,  327
  328,  329,  330,  331,  332,  333,  334,  335,  336,  337,  338,  339,  340,  341,  342,  343
  344,  345,  346,  347,  348,  349,  350,  351,  352,  353,  354,  355,  356,  357,  358,  359
  360,  361,  362,  363,  364,  365,  366,  367,  368,  369,  370,  371,  372,  373,  374,  375
  376,  377,  378,  379,  380,  381,  382,  383,  384,  385,  386,  387,  388,  389,  390,  391
  392,  393,  394,  395,  396,  397,  398,  399,  400,  401,  402,  403,  404,  405,  406,  407
  408,  409,  410,  411,  412,  413,  414,  415,  416,  417,  418,  419,  420,  421,  422,  423
  424,  425,  426,  427,  428,  429,  430,  431,  432,  433,  434,  435,  436,  437,  438,  439
  440,  441,  442,  443,  444,  445,  446,  447,  448,  449,  450,  451,  452,  453,  454,  455
  456,  457,  458,  459,  460,  461,  462,  463,  464,  465,  466,  467,  468,  469,  470,  471
  472,  473,  474,  475,  476,  477,  478,  479,  480,  481,  482,  483,  484,  485,  486,  487
  488,  489,  490,  491,  492,  493,  494,  495,  496,  497,  498,  499,  500,  501,  502,  503
  504,  505,  506,  507,  508,  509,  510,  511,  512,  513,  514,  515,  516,  517,  518,  519
  520,  521,  522,  523,  524,  525,  526,  527,  528,  529,  530,  531,  532,  533,  534,  535
  536,  537,  538,  539,  540,  541,  542,  543,  544,  545,  546,  547,  548,  549,  550,  551
  552,  553,  554,  555,  556,  557,  558,  559,  560,  561,  562,  563,  564,  565,  566,  567
  568,  569,  570,  571,  572,  573,  574,  575,  576,  577,  578,  579,  580,  581,  582,  583
  584,  585,  586,  587,  588,  589,  590,  591,  592,  593,  594,  595,  946,  947,  948,  949
  950,  951,  952,  953,  954,  955,  956,  957,  958,  959,  960,  961,  962,  963,  964,  965
  966,  967,  968,  969,  970,  971,  972,  973,  974,  975,  976,  977,  978,  979,  980,  981
  982,  983,  984,  985,  986,  987,  988,  989,  990,  991,  992,  993,  994,  995,  996,  997
  998,  999, 1000, 1001, 1002, 1003, 1004, 1005, 1006, 1007, 1008, 1009, 1010, 1011, 1012, 1013
 1014, 1015, 1016, 1017, 1018, 1019, 1020, 1021, 1022, 1023, 1024, 1025, 1026, 1027, 1028, 1029
 1030, 1031, 1032, 1033, 1034, 1035, 1036, 1037, 1038, 1039, 1040, 1041, 1042, 1043, 1044, 1045
 1046, 1047, 1048, 1049, 1050, 1051, 1052, 1053, 1054, 1055, 1056, 1057, 1058, 1059, 1060, 1061
 1062, 1063, 1064, 1065, 1066, 1067, 1068, 1069, 1070, 1071, 1072, 1073, 1074, 1075, 1076, 1077
 1078, 1079, 1080, 1081, 1082, 1083, 1084, 1085, 1086, 1087, 1088, 1089, 1090, 1091, 1092, 1093
 1094, 1095, 1096, 1097, 1098, 1099, 1100, 1101, 1102, 1103, 1104, 1105, 1106, 1107, 1108, 1109
 1110, 1111, 1112, 1113, 1114, 1115, 1116, 1117, 1118, 1119, 1120, 1121, 1122, 1123, 1124, 1125
 1126, 1127, 1128, 1129, 1130, 1131, 1132, 1133, 1134, 1135, 1136, 1137, 1138, 1139, 1140, 1141
 1142, 1143, 1144, 1145, 1146, 1147, 1148, 1149, 1150, 1151, 1152, 1153, 1154, 1155, 1156, 1157
 1158, 1159, 1160, 1161, 1162, 1163, 1164, 1165, 1166, 1167, 1168, 1169, 1170, 1171, 1172, 1173
 1174, 1175, 1176, 1177, 1178, 1179, 1180, 1181, 1182, 1183, 1184, 1185, 1186, 1187, 1188, 1189
 1190, 1191, 1192, 1193, 1194, 1195, 1196, 1197, 1198, 1199, 1200, 1201, 1202, 1203, 1204, 1205
 1206, 1207, 1208, 1209, 1210, 1211, 1212, 1213, 1214, 1215, 1216, 1217, 1218, 1219, 1220, 1221
 1222, 1223, 1224, 1225, 1226, 1227, 1228, 1229, 1230, 1231, 1232, 1233, 1234, 1235, 1236, 1237
 1238, 1239, 1240, 1241, 1242, 1243, 1244, 1245, 1246, 1247, 1248, 1249, 1250, 1251, 1252, 1253
 1254, 1255, 1256, 1257, 1258, 1259, 1260, 1261, 1262, 1263, 1264, 1265, 1266, 1267, 1268, 1269
 1270, 1271, 1272, 1273, 1274, 1275, 1276, 1277, 1278, 1279, 1280, 1281, 1282, 1283, 1284, 1285
 1286, 1287, 1288, 1289, 1290, 1291, 1292, 1293, 1294, 1295, 1296, 1297, 1298, 1299, 1300, 1301
 1302, 1303, 1304, 1305, 1306, 1307, 1308, 1309, 1310, 1311, 1312, 1313, 1314, 1315, 1316, 1317
 1318, 1319, 1320, 1321, 1322, 1323, 1324, 1325, 1326, 1327, 1328, 1329, 1330, 1331, 1332, 1333
 1334, 1335, 1336, 1337, 1338, 1339, 1340, 1341, 1342, 1343, 1344, 1345, 1346, 1347, 1348, 1349
 1350, 1351, 1352, 1353, 1354, 1355, 1356, 1357, 1358, 1359, 1360, 1361, 1362, 1363, 1364, 1365
 1366, 1367, 1368, 1369, 1370, 1371, 1372, 1373, 1374, 1375, 1376, 1377, 1378, 1379, 1380, 1381
 1382, 1383, 1384, 1385, 1386, 1387, 1388, 1389, 1390, 1391, 1392, 1393, 1394, 1395, 1396, 1397
 1398, 1399, 1400, 1401, 1402, 1403, 1404, 1405, 1406, 1407, 1408, 1409, 1410, 1411, 1412, 1413
 1414, 1415, 1416, 1417, 1418, 1419, 1420, 1421, 1422, 1423, 1424, 1425, 1426, 1427, 1428, 1429
 1430, 1431, 1432, 1433, 1434, 1435, 1436, 1437, 1438, 1439, 1440, 1441, 1442, 1443, 1444, 1445
 1446, 1447, 1448, 1449, 1450, 1451, 1452, 1453, 1454, 1455, 1456, 1457, 1458, 1459, 1460, 1461
 1462, 1463, 1464, 1465, 1466, 1467, 1468, 1469, 1470, 1471, 1472, 1473, 1474, 1475, 1476, 1477
 1478, 1479, 1480, 1481, 1482, 1483, 1484, 1485, 1486, 1487, 1488, 1489, 1490, 1491, 1492, 1493
 1494, 1495, 1496, 1497, 1498, 1499, 1500, 1501, 1502, 1503, 1504, 1505, 1506, 1507, 1508, 1509
 1510, 1511, 1512, 1513, 1514, 1515, 1516, 1517, 1518, 1519, 1520, 1521, 1522, 1523, 1524, 1525
 1526, 1527, 1528, 1529, 1530, 1531, 1532, 1533, 1534, 1535, 1536, 1537, 1538, 1539, 1540, 1541
 1542, 1543, 1544, 1545, 1546, 1547, 1548, 1549, 1550, 1551, 1552, 1553, 1554, 1555, 1556, 1557
 1558, 1559, 1560, 1561, 1562, 1563, 1564, 1565, 1566, 1567, 1568, 1569, 1570, 1571, 1572, 1573
 1574, 1575, 1576, 1577, 1578, 1579, 1580, 1581, 1582, 1583, 1584, 1585, 1586, 1587, 1588, 1589
 1590, 1591, 1592, 1593, 1594, 1595, 1596, 1597, 1598, 1599, 1600, 1601, 1602, 1603, 1604, 1605
 1606, 1607, 1608, 1609, 1610, 1611, 1612, 1613, 1614, 1615, 1616, 1617, 1618, 1619, 1620, 1621
 1622, 1623, 1624, 1625, 1626, 1627, 1628, 1629, 1630, 1631, 1632, 1633, 1634, 1635, 1636, 1637
 1638, 1639, 1640, 1641, 1642, 1643, 1644, 1645, 1646, 1647, 1648, 1649, 1650, 1651, 1652, 1653
 1654, 1655, 1656, 1657, 1658, 1659, 1660, 1661, 1662, 1663, 1664, 1665, 1666, 1667, 1668, 1669
 1670, 1671, 1672, 1673, 1674, 1675, 1676, 1677, 1678, 1679, 1680, 1681, 1682, 1683, 1684, 1685
 1686, 1687, 1688, 1689, 1690, 1691, 1692, 1693, 1694, 1695, 1696, 1697, 1698, 1699, 1700, 1701
 1702, 1703, 1704, 1705, 1706, 1707, 1708, 1709, 1710, 1711, 1712, 1713, 1714, 1715, 1716, 1717
 1718, 1719, 1720, 1721, 1722, 1723, 1724, 1725, 1726, 1727, 1728, 1729, 1730, 1731, 1732, 1733
 1734, 1735, 1736, 1737, 1738, 1739, 1740, 1741, 1742, 1743, 1744, 1745, 1746, 1747, 1748, 1749
 1750, 1751, 1752, 1753, 1754, 1755, 1756, 1757, 1758, 1759, 1760, 1761, 1762, 1763, 1764, 1765
 1766, 1767, 1768, 1769, 1770, 1771, 1772, 1773, 1774, 1775, 1776, 1777, 1778, 1779, 1780, 1781
 1782, 1783, 1784, 1785, 1786, 1787, 1788, 1789, 1790, 1791, 1792, 1793, 1794, 1795, 1796, 1797
 1798, 1799, 1800, 1801, 1802, 1803, 1804, 1805, 1806, 1807, 1808, 1809, 1810, 1811, 1812, 1813
 1814, 1815, 1816, 1817, 1818, 1819, 1820, 1821, 1822, 1823, 1824, 1825, 1826, 1827, 1828, 1829
 1830, 1831, 1832, 1833, 1834, 1835, 1836, 1837, 1838, 1839, 1840, 1841, 1842, 1843, 1844, 1845
 1846, 1847, 1848, 1849, 1850, 1851, 1852, 1853, 1854, 1855, 1856, 1857, 1858, 1859, 1860, 1861
 1862, 1863, 1864, 1865, 1866, 1867, 1868, 1869, 1870, 1871, 1872, 1873, 1874, 1875, 1876, 1877
 1878, 1879, 1880, 1881, 1882, 1883, 1884, 1885, 1886, 1887, 1888, 1889, 1890, 1891, 1892, 1893
 1894, 1895, 1896, 1897, 1898, 1899, 1900, 1901, 1902, 1903, 1904, 1905, 1906, 1907, 1908, 1909
 1910, 1911, 1912, 1913, 1914, 1915, 1916, 1917, 1918, 1919, 1920, 1921, 1922, 1923, 1924, 1925
 1926, 1927, 1928, 1929
*Elset, elset=P5
  108,  109,  110,  111,  112,  113,  114,  115,  126,  127,  128,  129,  130,  131,  132,  133
  134,  135,  136,  137,  138,  139,  140,  141,  149,  150,  151,  152,  153,  154,  155,  156
  157,  158,  159,  160,  161,  162,  163,  164,  165,  166,  167,  168,  169,  170,  171,  172
  173,  174,  175,  176,  177,  178,  179,  180,  181,  182,  183,  184,  185,  186,  187,  188
  189,  190,  191,  192,  193,  194,  195,  196,  197,  198,  199,  200,  201,  202,  203,  204
  205,  206,  207,  208,  209,  210,  211,  212,  213,  214,  215,  216,  217,  218,  219,  220
  221,  222,  223,  224,  225,  226,  227,  228,  229,  230,  231,  232,  233,  234,  235,  236
  237,  238,  239,  240,  241,  242,  243,  244,  245,  246,  247,  248,  249,  250,  251,  252
  253,  254,  255,  256,  257,  258,  259,  260,  261,  262,  263,  264,  265,  266,  267,  268
  269,  270,  271,  272,  273,  274,  275,  276,  277,  278,  279,  280,  281,  282,  283,  284
  285,  286,  287,  288,  289,  290,  291,  292,  293,  294,  295,  296,  297,  298,  299,  300
  301,  302,  303,  304,  305,  306,  307,  308,  309,  310,  311,  312,  313,  314,  315,  316
  317,  318,  319,  320,  321,  322,  323,  324,  325,  326,  327,  328,  329,  330,  331,  332
  333,  334,  335,  336,  337,  338,  339,  340,  341,  342,  343,  344,  345,  346,  347,  348
  349,  350,  351,  352,  353,  354,  355,  356,  357,  358,  359,  360,  361,  362,  363,  364
  365,  366,  367,  368,  369,  370,  371,  372,  373,  374,  375,  376,  377,  378,  379,  380
  381,  382,  383,  384,  385,  386,  387,  388,  389,  390,  391,  392,  393,  394,  395,  396
  397,  398,  399,  400,  401,  402,  403,  404,  405,  406,  407,  408,  409,  410,  411,  412
  413,  414,  415,  416,  417,  418,  419,  420,  421,  422,  423,  424,  425,  426,  427,  428
  429,  430,  431,  432,  433,  434,  435,  436,  437,  438,  439,  440,  441,  442,  443,  444
  445,  446,  447,  448,  449,  450,  451,  452,  453,  454,  455,  456,  457,  458,  459,  460
  461,  462,  463,  464,  465,  466,  467,  468,  469,  470,  471,  472,  473,  474,  475,  476
  860,  861,  862,  863,  864,  865,  866,  867,  868,  869,  870,  871,  872,  873,  874,  875
  876,  877,  878,  879,  880,  881,  882,  883,  884,  885,  886,  887,  888,  889,  890,  891
  892,  893,  894,  895,  896,  897,  898,  899,  900,  901,  902,  903,  904,  905,  906,  907
  908,  909,  910,  911,  912,  913,  914,  915,  916,  917,  918,  919,  920,  921,  922,  923
  924,  925,  926,  927,  928,  929,  930,  931,  932,  933,  934,  935,  936,  937,  938,  939
  940,  941,  942,  943,  944,  945,  946,  947,  948,  949,  950,  951,  952,  953,  954,  955
  956,  957,  958,  959,  960,  961,  962,  963,  964,  965,  966,  967,  968,  969,  970,  971
  972,  973,  974,  975,  976,  977,  978,  979,  980,  981,  982,  983,  984,  985,  986,  987
  988,  989,  990,  991,  992,  993,  994,  995,  996,  997,  998,  999, 1000, 1001, 1002, 1003
 1004, 1005, 1006, 1007, 1008, 1009, 1010, 1011, 1012, 1013, 1014, 1015, 1016, 1017, 1018, 1019
 1020, 1021, 1022, 1023, 1024, 1025, 1026, 1027, 1028, 1029, 1030, 1031, 1032, 1033, 1034, 1035
 1036, 1037, 1038, 1039, 1040, 1041, 1042, 1043, 1044, 1045, 1046, 1047, 1048, 1049, 1050, 1051
 1052, 1053, 1054, 1055, 1056, 1057, 1058, 1059, 1060, 1061, 1062, 1063, 1064, 1065, 1066, 1067
 1068, 1069, 1070, 1071, 1072, 1073, 1074, 1075, 1076, 1077, 1078, 1079, 1080, 1081, 1082, 1083
 1084, 1085, 1086, 1087, 1088, 1089, 1090, 1091, 1092, 1093, 1094, 1095, 1096, 1097, 1098, 1099
 1100, 1101, 1102, 1103, 1104, 1105, 1106, 1107, 1108, 1109, 1110, 1111, 1112, 1113, 1114, 1115
 1116, 1117, 1118, 1119, 1120, 1121, 1122, 1123, 1124, 1125, 1126, 1127, 1128, 1129, 1130, 1131
 1132, 1133, 1134, 1135, 1136, 1137, 1138, 1139, 1140, 1141, 1142, 1143, 1144, 1145, 1146, 1147
 1148, 1149, 1150, 1151, 1152, 1153, 1154, 1155, 1156, 1157, 1158, 1159, 1160, 1161, 1162, 1163
 1164, 1165, 1166, 1167, 1168, 1169, 1170, 1171, 1172, 1173, 1174, 1175, 1176, 1177, 1178, 1179
 1180, 1181, 1182, 1183, 1184, 1185, 1186, 1187, 1188, 1189, 1190, 1191, 1192, 1193, 1194, 1195
 1196, 1197, 1198, 1199, 1200, 1201, 1202, 1203, 1204, 1205, 1206, 1207, 1208, 1209, 1210, 1211
 1212, 1213, 1214, 1215, 1216, 1217, 1218, 1219, 1220, 1221, 1222, 1223, 1224, 1225, 1226, 1227
 1228, 1229, 1230, 1231, 1232, 1233, 1234, 1235, 1236, 1237, 1238, 1239, 1240, 1241, 1242, 1243
 1244, 1245, 1246, 1247, 1248, 1249, 1250, 1251, 1252, 1253, 1254, 1255, 1256, 1257, 1258, 1259
 1260, 1261, 1262, 1263, 1264, 1265, 1266, 1267, 1268, 1269, 1270, 1271, 1272, 1273, 1274, 1275
 1276, 1277, 1278, 1279, 1280, 1281, 1282, 1283, 1284, 1285, 1286, 1287, 1288, 1289, 1290, 1291
 1292, 1293, 1294, 1295, 1296, 1297, 1298, 1299, 1300, 1301, 1302, 1303, 1304, 1305, 1306, 1307
 1308, 1309, 1310, 1311, 1312, 1313, 1314, 1315, 1316, 1317, 1318, 1319, 1320, 1321, 1322, 1323
 1324, 1325, 1326, 1327, 1328, 1329, 1330, 1331, 1332, 1333, 1334, 1335, 1336, 1337, 1338, 1339
 1340, 1341, 1342, 1343, 1344, 1345, 1346, 1347, 1348, 1349, 1350, 1351, 1352, 1353, 1354, 1355
 1356, 1357, 1358, 1359, 1360, 1361, 1362, 1363, 1364, 1365, 1366, 1367, 1368, 1369, 1370, 1371
 1372, 1373, 1374, 1375, 1376, 1377, 1378, 1379, 1380, 1381, 1382, 1383, 1384, 1385, 1386, 1387
 1388, 1389, 1390, 1391, 1392, 1393, 1394, 1395, 1396, 1397, 1398, 1399, 1400, 1401, 1402, 1403
 1404, 1405, 1406, 1407, 1408, 1409, 1410, 1411, 1412, 1413, 1414, 1415, 1416, 1417, 1418, 1419
 1420, 1421, 1422, 1423, 1424, 1425, 1426, 1427, 1428, 1429, 1430, 1431, 1432, 1433, 1434, 1435
 1436, 1437, 1438, 1439, 1440, 1441, 1442, 1443, 1444, 1445, 1446, 1447, 1448, 1449, 1450, 1451
 1452, 1453, 1454, 1455, 1456, 1457, 1458, 1459, 1460, 1461, 1462, 1463, 1464, 1465, 1466, 1467
 1468, 1469, 1470, 1471, 1472, 1473, 1474, 1475, 1476, 1477, 1478, 1479, 1480, 1481, 1482, 1483
 1484, 1485, 1486, 1487, 1488, 1489, 1490, 1491, 1492, 1493, 1494, 1495, 1496, 1497, 1498, 1499
 1500, 1501, 1502, 1503, 1504, 1505, 1506, 1507, 1508, 1509, 1510, 1511, 1512, 1513, 1514, 1515
 1516, 1517, 1518, 1519, 1520, 1521, 1522, 1523, 1524, 1525, 1526, 1527, 1528, 1529, 1530, 1531
 1532, 1533, 1534, 1535, 1536, 1537, 1538, 1539, 1540, 1541, 1542, 1543, 1544, 1545, 1546, 1547
 1548, 1549, 1550, 1551, 1552, 1553, 1554, 1555, 1556, 1557, 1558, 1559, 1560, 1561, 1562, 1563
 1564, 1565, 1566, 1567, 1568, 1569, 1570, 1571, 1572, 1573, 1574, 1575, 1576, 1577, 1578, 1579
 1580, 1581, 1582, 1583, 1584, 1585, 1586, 1587, 1588, 1589, 1590, 1591, 1592, 1593, 1594, 1595
 1596, 1597, 1598, 1599, 1600, 1601, 1602, 1603, 1604, 1605, 1606, 1607, 1608, 1609, 1610, 1611
 1612, 1613, 1614, 1615, 1616, 1617, 1618, 1619, 1620, 1621, 1622, 1623, 1624, 1625, 1626, 1627
 1628, 1629, 1630, 1631, 1632, 1633, 1634, 1635, 1636, 1637, 1638, 1639, 1640, 1641, 1642, 1643
 1644, 1645, 1646, 1647, 1648, 1649, 1650, 1651, 1652, 1653, 1654, 1655, 1656, 1657, 1658, 1659
 1660, 1661, 1662, 1663, 1664, 1665, 1666, 1667, 1668, 1669, 1670, 1671, 1672, 1673, 1674, 1675
 1676, 1677, 1678, 1679, 1680, 1681, 1682, 1683, 1684, 1685, 1686, 1687, 1688, 1689, 1690, 1691
 1692, 1693, 1694, 1695, 1696, 1697, 1698, 1699, 1700, 1701, 1702, 1703, 1704, 1705, 1706, 1707
 1708, 1709, 1710, 1711, 1712, 1713, 1714, 1715, 1716, 1717, 1718, 1719, 1720, 1721, 1722, 1723
 1724, 1725, 1726, 1727, 1728, 1729, 1730, 1731, 1732, 1733, 1734, 1735, 1736, 1737, 1738, 1739
 1740, 1741, 1742, 1743, 1744, 1745, 1746, 1747, 1748, 1749, 1750, 1751, 1752, 1753, 1754, 1755
 1756, 1757, 1758, 1759, 1760, 1761, 1762, 1763, 1764, 1765, 1766, 1767, 1768, 1769, 1770, 1771
 1772, 1773, 1774, 1775, 1776, 1777, 1778, 1779, 1780, 1781, 1782, 1783, 1784, 1785, 1786, 1787
 1788, 1789, 1790, 1791, 1792, 1793, 1794, 1795, 1796, 1797, 1798, 1799, 1800, 1801, 1802, 1803
 1804, 1805, 1806, 1807, 1808, 1809, 1810, 1811, 1812, 1813, 1814, 1815, 1816, 1817, 1818, 1819
 1820, 1821, 1822, 1823, 1824, 1825, 1826, 1827, 1828, 1829, 1830, 1831, 1832, 1833, 1834, 1835
 1836, 1837, 1838, 1839, 1840, 1841, 1842, 1843, 1844, 1845, 1846, 1847, 1848, 1849, 1850, 1851
 1852, 1853, 1854, 1855, 1856, 1857, 1858, 1859, 1860, 1861, 1862, 1863, 1864, 1865, 1866, 1867
 1868, 1869, 1870, 1871, 1872, 1873, 1874, 1875, 1876, 1877, 1878, 1879, 1880, 1881, 1882, 1883
 1884, 1885, 1886, 1887, 1888, 1889, 1890, 1891, 1892, 1893, 1894, 1895, 1896, 1897, 1898, 1899
 1900, 1901, 1902, 1903, 1904, 1905, 1906, 1907, 1908, 1909, 1910, 1911, 1912, 1913, 1914, 1915
*Nset, nset=P6
    1,    2,  127,  128,  133,  134,  139,  140,  145,  146,  151,  152,  153,  154,  155,  156
  157,  158,  159,  160,  161,  162,  163,  164,  165,  166,  167,  168,  169,  170,  171,  172
  173,  174,  175,  176,  177,  178,  179,  180,  181,  182,  183,  184,  185,  186,  187,  188
  189,  190,  191,  192,  193, 1930, 1931, 1932, 1933, 1934, 1935, 1936, 1937, 1938, 1939, 1940
 1941, 1942, 1943, 1944, 1945, 1946, 1947, 1948, 1949, 1950, 1951, 1952, 1953, 1954, 1955, 1956
 1957, 1958, 1959, 1960, 1961, 1962, 1963, 1964, 1965, 1966, 1967, 1968, 1969, 1970, 1971, 1972
 2032, 2033, 2034, 2035, 2036, 2037, 2038, 2039, 2040, 2041, 2042, 2043, 2044, 2045, 2046, 2047
 2048, 2049, 2050, 2051, 2052, 2053, 2054, 2055, 2056, 2057, 2058, 2059, 2060, 2061, 2062, 2063
 2064, 2065, 2066, 2067, 2068, 2069, 2070, 2071, 2072, 2073, 2074, 2134, 2135, 2136, 2137, 2138
 2139, 2140, 2141, 2142, 2143, 2144, 2145, 2146, 2147, 2148, 2149, 2150, 2151, 2152, 2153, 2154
 2155, 2156, 2157, 2158, 2159, 2160, 2161, 2162, 2163, 2164, 2165, 2166, 2167, 2168, 2169, 2170
 2171, 2172, 2173, 2174, 2175, 2176, 2236, 2237, 2238, 2239, 2240, 2241, 2242, 2243, 2244, 2245
 2246, 2247, 2248, 2249, 2250, 2251, 2252, 2253, 2254, 2255, 2256, 2257, 2258, 2259, 2260, 2261
 2262, 2263, 2264, 2265, 2266, 2267, 2268, 2269, 2270, 2271, 2272, 2273, 2274, 2275, 2276, 2277
 2278,
*Elset, elset=P6
    1,    2,    3,    4,    5,    6,    7,    8,    9,   10,   11,   12,   13,   14,   15,   16
   17,   18,   19,   20,   21,   22,   23,   24,   25,   26,   27,   28,   29,   30,   31,   32
   33,   34,   35,   36,   37,   38,   39,   40,   41,   42,   43,   44, 1916, 1917, 1918, 1919
 1920, 1921, 1922, 1923, 1924, 1925, 1926, 1927, 1928, 1929, 1930, 1931, 1932, 1933, 1934, 1935
 1936, 1937, 1938, 1939, 1940, 1941, 1942, 1943, 1944, 1945, 1946, 1947, 1948, 1949, 1950, 1951
 1952, 1953, 1954, 1955, 1956, 1957, 1958, 1959, 2023, 2024, 2025, 2026, 2027, 2028, 2029, 2030
 2031, 2032, 2033, 2034, 2035, 2036, 2037, 2038, 2039, 2040, 2041, 2042, 2043, 2044, 2045, 2046
 2047, 2048, 2049, 2050, 2051, 2052, 2053, 2054, 2055, 2056, 2057, 2058, 2059, 2060, 2061, 2062
 2063, 2064, 2065, 2066, 2130, 2131, 2132, 2133, 2134, 2135, 2136, 2137, 2138, 2139, 2140, 2141
 2142, 2143, 2144, 2145, 2146, 2147, 2148, 2149, 2150, 2151, 2152, 2153, 2154, 2155, 2156, 2157
 2158, 2159, 2160, 2161, 2162, 2163, 2164, 2165, 2166, 2167, 2168, 2169, 2170, 2171, 2172, 2173
 2237, 2238, 2239, 2240, 2241, 2242, 2243, 2244, 2245, 2246, 2247, 2248, 2249, 2250, 2251, 2252
 2253, 2254, 2255, 2256, 2257, 2258, 2259, 2260, 2261, 2262, 2263, 2264, 2265, 2266, 2267, 2268
 2269, 2270, 2271, 2272, 2273, 2274, 2275, 2276, 2277, 2278, 2279, 2280
** Section: P6  Profile: C50
*Beam Section, elset=P6, material=S235JR, poisson = 0.3, temperature=GRADIENTS, section=ARBITRARY
3, 16.875, 22.5, -5.625, 22.5, 5.
-5.625, -22.5, 5.
16.875, -22.5, 5.
1.,0.,0.
** Section: P4  Profile: C125
*Beam Section, elset=P4, material=S235JR, poisson = 0.3, temperature=GRADIENTS, section=ARBITRARY
5, 36.9745, 37.5, 36.9745, 60.5, 4.
-21.5255, 60.5, 4.
-21.5255, -60.5, 4.
36.9745, -60.5, 4.
36.9745, -37.5, 4.
-1.,0.,0.
** Section: P3  Profile: C125
*Beam Section, elset=P3, material=S235JR, poisson = 0.3, temperature=GRADIENTS, section=ARBITRARY
5, 36.9745, 37.5, 36.9745, 60.5, 4.
-21.5255, 60.5, 4.
-21.5255, -60.5, 4.
36.9745, -60.5, 4.
36.9745, -37.5, 4.
-1.,0.,0.
** Section: P5  Profile: C100
*Beam Section, elset=P5, material=S235JR, poisson = 0.3, temperature=GRADIENTS, section=ARBITRARY
5, 29.1607, 30., 29.1607, 48., 4.
-16.8393, 48., 4.
-16.8393, -48., 4.
29.1607, -48., 4.
29.1607, -30., 4.
0.,0.906351,0.422525
** Section: P2  Profile: C125
*Beam Section, elset=P2, material=S355JR, poisson = 0.3, temperature=GRADIENTS, section=ARBITRARY
5, 36.9745, 37.5, 36.9745, 60.5, 4.
-21.5255, 60.5, 4.
-21.5255, -60.5, 4.
36.9745, -60.5, 4.
36.9745, -37.5, 4.
1.,0.,0.
*MPC
BEAM, 136, 64
BEAM, 135, 61
BEAM, 142, 58
BEAM, 141, 55
BEAM, 130, 51
BEAM, 129, 48
BEAM, 148, 44
BEAM, 147, 41
BEAM, 4, 37
BEAM, 3, 11
*End Part
**  
**
** ASSEMBLY
**
*Assembly, name=Assembly
**  
*Instance, name=FRAME, part=SteelFrame
*End Instance
**  
*Nset, nset=BASES, instance=FRAME
   5,   6, 131, 132, 137, 138, 143, 144, 149, 150
*Nset, nset=CONTACT_ROW_1, instance=FRAME
  45,  59, 107, 108, 109, 110, 111, 112, 113, 114, 115, 116, 117, 118, 119, 120
 121, 122, 123, 124, 125, 126
*Nset, nset=CONTACT_ROW_2, instance=FRAME
  43,  57,  87,  88,  89,  90,  91,  92,  93,  94,  95,  96,  97,  98,  99, 100
 101, 102, 103, 104, 105, 106
*Nset, nset=CONTACT_ROW_3, instance=FRAME
 42, 56, 67, 68, 69, 70, 71, 72, 73, 74, 75, 76, 77, 78, 79, 80
 81, 82, 83, 84, 85, 86
*Nset, nset=CONTACT_ROW_4, instance=FRAME
  7, 10, 12, 13, 14, 15, 16, 17, 18, 19, 20, 22, 23, 24, 25, 26
 27, 28, 29, 30, 31, 32
*End Assembly
** 
** MATERIALS
** 
*Material, name=S235JR
*Density
 7.85e-09,
*Elastic
210000., 0.3
*Material, name=S355JR
*Density
 7.85e-09,
*Elastic
210000., 0.3
** 
** BOUNDARY CONDITIONS
** 
** Name: GroundFixity Type: Symmetry/Antisymmetry/Encastre
*Boundary
BASES, ENCASTRE
** ----------------------------------------------------------------
** 
** STEP: D
** 
*Step, name=D, nlgeom=NO, inc=1000
*Static
1., 1., 1e-05, 1.
** 
** LOADS
** 
** Name: D_Contact_1   Type: Concentrated force
*Cload, op=NEW
CONTACT_ROW_1, 2, 0.
CONTACT_ROW_1, 3, -126.993
** Name: D_Contact_2   Type: Concentrated force
*Cload, op=NEW
CONTACT_ROW_2, 2, 0.
CONTACT_ROW_2, 3, -126.993
** Name: D_Contact_3   Type: Concentrated force
*Cload, op=NEW
CONTACT_ROW_3, 2, 0.
CONTACT_ROW_3, 3, -126.993
** Name: D_Contact_4   Type: Concentrated force
*Cload, op=NEW
CONTACT_ROW_4, 2, 0.
CONTACT_ROW_4, 3, -126.993
** Name: D_SteelGravity   Type: Gravity
*Dload, op=NEW
, GRAV, 9810., 0., 0., -1.
** 
** OUTPUT REQUESTS
** 
*Restart, write, frequency=0
** 
** FIELD OUTPUT: Nodal
** 
*Output, field, frequency=99999
*Node Output
RF, RM, U
** 
** FIELD OUTPUT: Section_P2
** 
*Element Output, elset=FRAME.P2, directions=YES
1, 2, 3, 4, 5, 6, 7, 8, 9, 10, 11
S, SF
** 
** FIELD OUTPUT: Section_P3
** 
*Element Output, elset=FRAME.P3, directions=YES
1, 2, 3, 4, 5, 6, 7, 8, 9, 10, 11
S, SF
** 
** FIELD OUTPUT: Section_P4
** 
*Element Output, elset=FRAME.P4, directions=YES
1, 2, 3, 4, 5, 6, 7, 8, 9, 10, 11
S, SF
** 
** FIELD OUTPUT: Section_P5
** 
*Element Output, elset=FRAME.P5, directions=YES
1, 2, 3, 4, 5, 6, 7, 8, 9, 10, 11
S, SF
** 
** FIELD OUTPUT: Section_P6
** 
*Element Output, elset=FRAME.P6, directions=YES
1, 2, 3, 4, 5, 6, 7
S, SF
** 
** HISTORY OUTPUT: Energy
** 
*Output, history
*Energy Output
ALLSE, ALLWK
*End Step
** ----------------------------------------------------------------
** 
** STEP: S
** 
*Step, name=S, nlgeom=NO, inc=1000
*Static
1., 1., 1e-05, 1.
** 
** LOADS
** 
** Name: D_Contact_1   Type: Concentrated force
*Cload, op=NEW
** Name: D_Contact_2   Type: Concentrated force
*Cload, op=NEW
** Name: D_Contact_3   Type: Concentrated force
*Cload, op=NEW
** Name: D_Contact_4   Type: Concentrated force
*Cload, op=NEW
** Name: D_SteelGravity   Type: Gravity
*Dload, op=NEW
** Name: S_Contact_1   Type: Concentrated force
*Cload, op=NEW
CONTACT_ROW_1, 2, 0.
CONTACT_ROW_1, 3, -733.2
** Name: S_Contact_2   Type: Concentrated force
*Cload, op=NEW
CONTACT_ROW_2, 2, 0.
CONTACT_ROW_2, 3, -733.2
** Name: S_Contact_3   Type: Concentrated force
*Cload, op=NEW
CONTACT_ROW_3, 2, 0.
CONTACT_ROW_3, 3, -733.2
** Name: S_Contact_4   Type: Concentrated force
*Cload, op=NEW
CONTACT_ROW_4, 2, 0.
CONTACT_ROW_4, 3, -733.2
** 
** OUTPUT REQUESTS
** 
*Restart, write, frequency=0
** 
** FIELD OUTPUT: Nodal
** 
*Output, field, frequency=99999
*Node Output
RF, RM, U
** 
** FIELD OUTPUT: Section_P2
** 
*Element Output, elset=FRAME.P2, directions=YES
1, 2, 3, 4, 5, 6, 7, 8, 9, 10, 11
S, SF
** 
** FIELD OUTPUT: Section_P3
** 
*Element Output, elset=FRAME.P3, directions=YES
1, 2, 3, 4, 5, 6, 7, 8, 9, 10, 11
S, SF
** 
** FIELD OUTPUT: Section_P4
** 
*Element Output, elset=FRAME.P4, directions=YES
1, 2, 3, 4, 5, 6, 7, 8, 9, 10, 11
S, SF
** 
** FIELD OUTPUT: Section_P5
** 
*Element Output, elset=FRAME.P5, directions=YES
1, 2, 3, 4, 5, 6, 7, 8, 9, 10, 11
S, SF
** 
** FIELD OUTPUT: Section_P6
** 
*Element Output, elset=FRAME.P6, directions=YES
1, 2, 3, 4, 5, 6, 7
S, SF
** 
** HISTORY OUTPUT: Energy
** 
*Output, history
*Energy Output
ALLSE, ALLWK
*End Step
** ----------------------------------------------------------------
** 
** STEP: W
** 
*Step, name=W, nlgeom=NO, inc=1000
*Static
1., 1., 1e-05, 1.
** 
** LOADS
** 
** Name: S_Contact_1   Type: Concentrated force
*Cload, op=NEW
** Name: S_Contact_2   Type: Concentrated force
*Cload, op=NEW
** Name: S_Contact_3   Type: Concentrated force
*Cload, op=NEW
** Name: S_Contact_4   Type: Concentrated force
*Cload, op=NEW
** Name: W_Contact_1   Type: Concentrated force
*Cload, op=NEW
CONTACT_ROW_1, 2, 35.556
CONTACT_ROW_1, 3, -76.2707
** Name: W_Contact_2   Type: Concentrated force
*Cload, op=NEW
CONTACT_ROW_2, 2, 35.556
CONTACT_ROW_2, 3, -76.2707
** Name: W_Contact_3   Type: Concentrated force
*Cload, op=NEW
CONTACT_ROW_3, 2, 35.556
CONTACT_ROW_3, 3, -76.2707
** Name: W_Contact_4   Type: Concentrated force
*Cload, op=NEW
CONTACT_ROW_4, 2, 35.556
CONTACT_ROW_4, 3, -76.2707
** 
** OUTPUT REQUESTS
** 
*Restart, write, frequency=0
** 
** FIELD OUTPUT: Nodal
** 
*Output, field, frequency=99999
*Node Output
RF, RM, U
** 
** FIELD OUTPUT: Section_P2
** 
*Element Output, elset=FRAME.P2, directions=YES
1, 2, 3, 4, 5, 6, 7, 8, 9, 10, 11
S, SF
** 
** FIELD OUTPUT: Section_P3
** 
*Element Output, elset=FRAME.P3, directions=YES
1, 2, 3, 4, 5, 6, 7, 8, 9, 10, 11
S, SF
** 
** FIELD OUTPUT: Section_P4
** 
*Element Output, elset=FRAME.P4, directions=YES
1, 2, 3, 4, 5, 6, 7, 8, 9, 10, 11
S, SF
** 
** FIELD OUTPUT: Section_P5
** 
*Element Output, elset=FRAME.P5, directions=YES
1, 2, 3, 4, 5, 6, 7, 8, 9, 10, 11
S, SF
** 
** FIELD OUTPUT: Section_P6
** 
*Element Output, elset=FRAME.P6, directions=YES
1, 2, 3, 4, 5, 6, 7
S, SF
** 
** HISTORY OUTPUT: Energy
** 
*Output, history
*Energy Output
ALLSE, ALLWK
*End Step
** ----------------------------------------------------------------
** 
** STEP: D_07S
** 
*Step, name=D_07S, nlgeom=NO, inc=1000
*Static
1., 1., 1e-05, 1.
** 
** LOADS
** 
** Name: D_07S_Contact_1   Type: Concentrated force
*Cload, op=NEW
CONTACT_ROW_1, 2, 0.
CONTACT_ROW_1, 3, -640.233
** Name: D_07S_Contact_2   Type: Concentrated force
*Cload, op=NEW
CONTACT_ROW_2, 2, 0.
CONTACT_ROW_2, 3, -640.233
** Name: D_07S_Contact_3   Type: Concentrated force
*Cload, op=NEW
CONTACT_ROW_3, 2, 0.
CONTACT_ROW_3, 3, -640.233
** Name: D_07S_Contact_4   Type: Concentrated force
*Cload, op=NEW
CONTACT_ROW_4, 2, 0.
CONTACT_ROW_4, 3, -640.233
** Name: D_07S_SteelGravity   Type: Gravity
*Dload, op=NEW
, GRAV, 9810., 0., 0., -1.
** Name: W_Contact_1   Type: Concentrated force
*Cload, op=NEW
** Name: W_Contact_2   Type: Concentrated force
*Cload, op=NEW
** Name: W_Contact_3   Type: Concentrated force
*Cload, op=NEW
** Name: W_Contact_4   Type: Concentrated force
*Cload, op=NEW
** 
** OUTPUT REQUESTS
** 
*Restart, write, frequency=0
** 
** FIELD OUTPUT: Nodal
** 
*Output, field, frequency=99999
*Node Output
RF, RM, U
** 
** FIELD OUTPUT: Section_P2
** 
*Element Output, elset=FRAME.P2, directions=YES
1, 2, 3, 4, 5, 6, 7, 8, 9, 10, 11
S, SF
** 
** FIELD OUTPUT: Section_P3
** 
*Element Output, elset=FRAME.P3, directions=YES
1, 2, 3, 4, 5, 6, 7, 8, 9, 10, 11
S, SF
** 
** FIELD OUTPUT: Section_P4
** 
*Element Output, elset=FRAME.P4, directions=YES
1, 2, 3, 4, 5, 6, 7, 8, 9, 10, 11
S, SF
** 
** FIELD OUTPUT: Section_P5
** 
*Element Output, elset=FRAME.P5, directions=YES
1, 2, 3, 4, 5, 6, 7, 8, 9, 10, 11
S, SF
** 
** FIELD OUTPUT: Section_P6
** 
*Element Output, elset=FRAME.P6, directions=YES
1, 2, 3, 4, 5, 6, 7
S, SF
** 
** HISTORY OUTPUT: Energy
** 
*Output, history
*Energy Output
ALLSE, ALLWK
*End Step
** ----------------------------------------------------------------
** 
** STEP: D_S
** 
*Step, name=D_S, nlgeom=NO, inc=1000
*Static
1., 1., 1e-05, 1.
** 
** LOADS
** 
** Name: D_07S_Contact_1   Type: Concentrated force
*Cload, op=NEW
** Name: D_07S_Contact_2   Type: Concentrated force
*Cload, op=NEW
** Name: D_07S_Contact_3   Type: Concentrated force
*Cload, op=NEW
** Name: D_07S_Contact_4   Type: Concentrated force
*Cload, op=NEW
** Name: D_07S_SteelGravity   Type: Gravity
*Dload, op=NEW
** Name: D_S_Contact_1   Type: Concentrated force
*Cload, op=NEW
CONTACT_ROW_1, 2, 0.
CONTACT_ROW_1, 3, -860.193
** Name: D_S_Contact_2   Type: Concentrated force
*Cload, op=NEW
CONTACT_ROW_2, 2, 0.
CONTACT_ROW_2, 3, -860.193
** Name: D_S_Contact_3   Type: Concentrated force
*Cload, op=NEW
CONTACT_ROW_3, 2, 0.
CONTACT_ROW_3, 3, -860.193
** Name: D_S_Contact_4   Type: Concentrated force
*Cload, op=NEW
CONTACT_ROW_4, 2, 0.
CONTACT_ROW_4, 3, -860.193
** Name: D_S_SteelGravity   Type: Gravity
*Dload, op=NEW
, GRAV, 9810., 0., 0., -1.
** 
** OUTPUT REQUESTS
** 
*Restart, write, frequency=0
** 
** FIELD OUTPUT: Nodal
** 
*Output, field, frequency=99999
*Node Output
RF, RM, U
** 
** FIELD OUTPUT: Section_P2
** 
*Element Output, elset=FRAME.P2, directions=YES
1, 2, 3, 4, 5, 6, 7, 8, 9, 10, 11
S, SF
** 
** FIELD OUTPUT: Section_P3
** 
*Element Output, elset=FRAME.P3, directions=YES
1, 2, 3, 4, 5, 6, 7, 8, 9, 10, 11
S, SF
** 
** FIELD OUTPUT: Section_P4
** 
*Element Output, elset=FRAME.P4, directions=YES
1, 2, 3, 4, 5, 6, 7, 8, 9, 10, 11
S, SF
** 
** FIELD OUTPUT: Section_P5
** 
*Element Output, elset=FRAME.P5, directions=YES
1, 2, 3, 4, 5, 6, 7, 8, 9, 10, 11
S, SF
** 
** FIELD OUTPUT: Section_P6
** 
*Element Output, elset=FRAME.P6, directions=YES
1, 2, 3, 4, 5, 6, 7
S, SF
** 
** HISTORY OUTPUT: Energy
** 
*Output, history
*Energy Output
ALLSE, ALLWK
*End Step
** ----------------------------------------------------------------
** 
** STEP: D_S_W
** 
*Step, name=D_S_W, nlgeom=NO, inc=1000
*Static
1., 1., 1e-05, 1.
** 
** LOADS
** 
** Name: D_S_Contact_1   Type: Concentrated force
*Cload, op=NEW
** Name: D_S_Contact_2   Type: Concentrated force
*Cload, op=NEW
** Name: D_S_Contact_3   Type: Concentrated force
*Cload, op=NEW
** Name: D_S_Contact_4   Type: Concentrated force
*Cload, op=NEW
** Name: D_S_SteelGravity   Type: Gravity
*Dload, op=NEW
** Name: D_S_W_Contact_1   Type: Concentrated force
*Cload, op=NEW
CONTACT_ROW_1, 2, 35.556
CONTACT_ROW_1, 3, -936.463
** Name: D_S_W_Contact_2   Type: Concentrated force
*Cload, op=NEW
CONTACT_ROW_2, 2, 35.556
CONTACT_ROW_2, 3, -936.463
** Name: D_S_W_Contact_3   Type: Concentrated force
*Cload, op=NEW
CONTACT_ROW_3, 2, 35.556
CONTACT_ROW_3, 3, -936.463
** Name: D_S_W_Contact_4   Type: Concentrated force
*Cload, op=NEW
CONTACT_ROW_4, 2, 35.556
CONTACT_ROW_4, 3, -936.463
** Name: D_S_W_SteelGravity   Type: Gravity
*Dload, op=NEW
, GRAV, 9810., 0., 0., -1.
** 
** OUTPUT REQUESTS
** 
*Restart, write, frequency=0
** 
** FIELD OUTPUT: Nodal
** 
*Output, field, frequency=99999
*Node Output
RF, RM, U
** 
** FIELD OUTPUT: Section_P2
** 
*Element Output, elset=FRAME.P2, directions=YES
1, 2, 3, 4, 5, 6, 7, 8, 9, 10, 11
S, SF
** 
** FIELD OUTPUT: Section_P3
** 
*Element Output, elset=FRAME.P3, directions=YES
1, 2, 3, 4, 5, 6, 7, 8, 9, 10, 11
S, SF
** 
** FIELD OUTPUT: Section_P4
** 
*Element Output, elset=FRAME.P4, directions=YES
1, 2, 3, 4, 5, 6, 7, 8, 9, 10, 11
S, SF
** 
** FIELD OUTPUT: Section_P5
** 
*Element Output, elset=FRAME.P5, directions=YES
1, 2, 3, 4, 5, 6, 7, 8, 9, 10, 11
S, SF
** 
** FIELD OUTPUT: Section_P6
** 
*Element Output, elset=FRAME.P6, directions=YES
1, 2, 3, 4, 5, 6, 7
S, SF
** 
** HISTORY OUTPUT: Energy
** 
*Output, history
*Energy Output
ALLSE, ALLWK
*End Step
** ----------------------------------------------------------------
** 
** STEP: D_S_mW
** 
*Step, name=D_S_mW, nlgeom=NO, inc=1000
*Static
1., 1., 1e-05, 1.
** 
** LOADS
** 
** Name: D_S_W_Contact_1   Type: Concentrated force
*Cload, op=NEW
** Name: D_S_W_Contact_2   Type: Concentrated force
*Cload, op=NEW
** Name: D_S_W_Contact_3   Type: Concentrated force
*Cload, op=NEW
** Name: D_S_W_Contact_4   Type: Concentrated force
*Cload, op=NEW
** Name: D_S_W_SteelGravity   Type: Gravity
*Dload, op=NEW
** Name: D_S_mW_Contact_1   Type: Concentrated force
*Cload, op=NEW
CONTACT_ROW_1, 2, -35.556
CONTACT_ROW_1, 3, -783.922
** Name: D_S_mW_Contact_2   Type: Concentrated force
*Cload, op=NEW
CONTACT_ROW_2, 2, -35.556
CONTACT_ROW_2, 3, -783.922
** Name: D_S_mW_Contact_3   Type: Concentrated force
*Cload, op=NEW
CONTACT_ROW_3, 2, -35.556
CONTACT_ROW_3, 3, -783.922
** Name: D_S_mW_Contact_4   Type: Concentrated force
*Cload, op=NEW
CONTACT_ROW_4, 2, -35.556
CONTACT_ROW_4, 3, -783.922
** Name: D_S_mW_SteelGravity   Type: Gravity
*Dload, op=NEW
, GRAV, 9810., 0., 0., -1.
** 
** OUTPUT REQUESTS
** 
*Restart, write, frequency=0
** 
** FIELD OUTPUT: Nodal
** 
*Output, field, frequency=99999
*Node Output
RF, RM, U
** 
** FIELD OUTPUT: Section_P2
** 
*Element Output, elset=FRAME.P2, directions=YES
1, 2, 3, 4, 5, 6, 7, 8, 9, 10, 11
S, SF
** 
** FIELD OUTPUT: Section_P3
** 
*Element Output, elset=FRAME.P3, directions=YES
1, 2, 3, 4, 5, 6, 7, 8, 9, 10, 11
S, SF
** 
** FIELD OUTPUT: Section_P4
** 
*Element Output, elset=FRAME.P4, directions=YES
1, 2, 3, 4, 5, 6, 7, 8, 9, 10, 11
S, SF
** 
** FIELD OUTPUT: Section_P5
** 
*Element Output, elset=FRAME.P5, directions=YES
1, 2, 3, 4, 5, 6, 7, 8, 9, 10, 11
S, SF
** 
** FIELD OUTPUT: Section_P6
** 
*Element Output, elset=FRAME.P6, directions=YES
1, 2, 3, 4, 5, 6, 7
S, SF
** 
** HISTORY OUTPUT: Energy
** 
*Output, history
*Energy Output
ALLSE, ALLWK
*End Step
** ----------------------------------------------------------------
** 
** STEP: C09D_W
** 
*Step, name=C09D_W, nlgeom=NO, inc=1000
*Static
1., 1., 1e-05, 1.
** 
** LOADS
** 
** Name: C09D_W_Contact_1   Type: Concentrated force
*Cload, op=NEW
CONTACT_ROW_1, 2, 35.556
CONTACT_ROW_1, 3, -190.564
** Name: C09D_W_Contact_2   Type: Concentrated force
*Cload, op=NEW
CONTACT_ROW_2, 2, 35.556
CONTACT_ROW_2, 3, -190.564
** Name: C09D_W_Contact_3   Type: Concentrated force
*Cload, op=NEW
CONTACT_ROW_3, 2, 35.556
CONTACT_ROW_3, 3, -190.564
** Name: C09D_W_Contact_4   Type: Concentrated force
*Cload, op=NEW
CONTACT_ROW_4, 2, 35.556
CONTACT_ROW_4, 3, -190.564
** Name: C09D_W_SteelGravity   Type: Gravity
*Dload, op=NEW
, GRAV, 8829., 0., 0., -1.
** Name: D_S_mW_Contact_1   Type: Concentrated force
*Cload, op=NEW
** Name: D_S_mW_Contact_2   Type: Concentrated force
*Cload, op=NEW
** Name: D_S_mW_Contact_3   Type: Concentrated force
*Cload, op=NEW
** Name: D_S_mW_Contact_4   Type: Concentrated force
*Cload, op=NEW
** Name: D_S_mW_SteelGravity   Type: Gravity
*Dload, op=NEW
** 
** OUTPUT REQUESTS
** 
*Restart, write, frequency=0
** 
** FIELD OUTPUT: Nodal
** 
*Output, field, frequency=99999
*Node Output
RF, RM, U
** 
** FIELD OUTPUT: Section_P2
** 
*Element Output, elset=FRAME.P2, directions=YES
1, 2, 3, 4, 5, 6, 7, 8, 9, 10, 11
S, SF
** 
** FIELD OUTPUT: Section_P3
** 
*Element Output, elset=FRAME.P3, directions=YES
1, 2, 3, 4, 5, 6, 7, 8, 9, 10, 11
S, SF
** 
** FIELD OUTPUT: Section_P4
** 
*Element Output, elset=FRAME.P4, directions=YES
1, 2, 3, 4, 5, 6, 7, 8, 9, 10, 11
S, SF
** 
** FIELD OUTPUT: Section_P5
** 
*Element Output, elset=FRAME.P5, directions=YES
1, 2, 3, 4, 5, 6, 7, 8, 9, 10, 11
S, SF
** 
** FIELD OUTPUT: Section_P6
** 
*Element Output, elset=FRAME.P6, directions=YES
1, 2, 3, 4, 5, 6, 7
S, SF
** 
** HISTORY OUTPUT: Energy
** 
*Output, history
*Energy Output
ALLSE, ALLWK
*End Step
** ----------------------------------------------------------------
** 
** STEP: C09D_mW
** 
*Step, name=C09D_mW, nlgeom=NO, inc=1000
*Static
1., 1., 1e-05, 1.
** 
** LOADS
** 
** Name: C09D_W_Contact_1   Type: Concentrated force
*Cload, op=NEW
** Name: C09D_W_Contact_2   Type: Concentrated force
*Cload, op=NEW
** Name: C09D_W_Contact_3   Type: Concentrated force
*Cload, op=NEW
** Name: C09D_W_Contact_4   Type: Concentrated force
*Cload, op=NEW
** Name: C09D_W_SteelGravity   Type: Gravity
*Dload, op=NEW
** Name: C09D_mW_Contact_1   Type: Concentrated force
*Cload, op=NEW
CONTACT_ROW_1, 2, -35.556
CONTACT_ROW_1, 3, -38.0225
** Name: C09D_mW_Contact_2   Type: Concentrated force
*Cload, op=NEW
CONTACT_ROW_2, 2, -35.556
CONTACT_ROW_2, 3, -38.0225
** Name: C09D_mW_Contact_3   Type: Concentrated force
*Cload, op=NEW
CONTACT_ROW_3, 2, -35.556
CONTACT_ROW_3, 3, -38.0225
** Name: C09D_mW_Contact_4   Type: Concentrated force
*Cload, op=NEW
CONTACT_ROW_4, 2, -35.556
CONTACT_ROW_4, 3, -38.0225
** Name: C09D_mW_SteelGravity   Type: Gravity
*Dload, op=NEW
, GRAV, 8829., 0., 0., -1.
** 
** OUTPUT REQUESTS
** 
*Restart, write, frequency=0
** 
** FIELD OUTPUT: Nodal
** 
*Output, field, frequency=99999
*Node Output
RF, RM, U
** 
** FIELD OUTPUT: Section_P2
** 
*Element Output, elset=FRAME.P2, directions=YES
1, 2, 3, 4, 5, 6, 7, 8, 9, 10, 11
S, SF
** 
** FIELD OUTPUT: Section_P3
** 
*Element Output, elset=FRAME.P3, directions=YES
1, 2, 3, 4, 5, 6, 7, 8, 9, 10, 11
S, SF
** 
** FIELD OUTPUT: Section_P4
** 
*Element Output, elset=FRAME.P4, directions=YES
1, 2, 3, 4, 5, 6, 7, 8, 9, 10, 11
S, SF
** 
** FIELD OUTPUT: Section_P5
** 
*Element Output, elset=FRAME.P5, directions=YES
1, 2, 3, 4, 5, 6, 7, 8, 9, 10, 11
S, SF
** 
** FIELD OUTPUT: Section_P6
** 
*Element Output, elset=FRAME.P6, directions=YES
1, 2, 3, 4, 5, 6, 7
S, SF
** 
** HISTORY OUTPUT: Energy
** 
*Output, history
*Energy Output
ALLSE, ALLWK
*End Step
