*Heading
 Solar support; see assumptions and run metadata; N mm tonne s
** Job name: Solar_007_five_boundaries Model name: SolarSupport
** Generated by: Abaqus/CAE 2024
*Preprint, echo=NO, model=NO, history=NO, contact=NO
**
** PARTS
**
*Part, name=SteelFrame
*Node
      1,   17735.5449,   2888.94629,   2398.77441
      2,       18148.,   2888.94629,   2398.77441
      3,       18148.,   2134.36011,        2047.
      4,       18148.,   1978.06323,   1974.13721
      5,       18148.,   1067.18005,       1549.5
      6,       18148.,   156.296799,   1124.86279
      7,       18148.,           0.,        1052.
      8,       18148.,  -754.586365,   700.225464
      9,   17735.5449,  -754.586365,   700.225464
     10,   16910.6367,  -754.586365,   700.225464
     11,   16085.7275,  -754.586365,   700.225464
     12,   15260.8184,  -754.586365,   700.225464
     13,   14435.9092,  -754.586365,   700.225464
     14,       13611.,  -754.586365,   700.225464
     15,   12786.0908,  -754.586365,   700.225464
     16,   11961.1816,  -754.586365,   700.225464
     17,   11136.2725,  -754.586365,   700.225464
     18,   10311.3633,  -754.586365,   700.225464
     19,    9486.4541,  -754.586365,   700.225464
     20,        9074.,  -754.586365,   700.225464
     21,    8661.5459,  -754.586365,   700.225464
     22,   7836.63623,  -754.586365,   700.225464
     23,   7011.72705,  -754.586365,   700.225464
     24,   6186.81836,  -754.586365,   700.225464
     25,   5361.90918,  -754.586365,   700.225464
     26,        4537.,  -754.586365,   700.225464
     27,   3712.09082,  -754.586365,   700.225464
     28,   2887.18188,  -754.586365,   700.225464
     29,   2062.27271,  -754.586365,   700.225464
     30,   1237.36365,  -754.586365,   700.225464
     31,   412.454559,  -754.586365,   700.225464
     32,           0.,  -754.586365,   700.225464
     33,           0.,           0.,        1052.
     34,           0.,           0.,         927.
     35,           0.,           0.,           0.
     36,   16910.6367,   2888.94629,   2398.77441
     37,       18148.,   2134.36011,   416.769989
     38,       18148.,   2134.36011,           0.
     39,   17735.5449,   1978.06323,   1974.13721
     40,   16910.6367,   1978.06323,   1974.13721
     41,   16085.7275,   1978.06323,   1974.13721
     42,   15260.8184,   1978.06323,   1974.13721
     43,   14435.9092,   1978.06323,   1974.13721
     44,       13611.,   1978.06323,   1974.13721
     45,   12786.0908,   1978.06323,   1974.13721
     46,   11961.1816,   1978.06323,   1974.13721
     47,   11136.2725,   1978.06323,   1974.13721
     48,   10311.3633,   1978.06323,   1974.13721
     49,    9486.4541,   1978.06323,   1974.13721
     50,        9074.,   1978.06323,   1974.13721
     51,    8661.5459,   1978.06323,   1974.13721
     52,   7836.63623,   1978.06323,   1974.13721
     53,   7011.72705,   1978.06323,   1974.13721
     54,   6186.81836,   1978.06323,   1974.13721
     55,   5361.90918,   1978.06323,   1974.13721
     56,        4537.,   1978.06323,   1974.13721
     57,   3712.09082,   1978.06323,   1974.13721
     58,   2887.18188,   1978.06323,   1974.13721
     59,   2062.27271,   1978.06323,   1974.13721
     60,   1237.36365,   1978.06323,   1974.13721
     61,   412.454559,   1978.06323,   1974.13721
     62,           0.,   1978.06323,   1974.13721
     63,           0.,   2134.36011,        2047.
     64,           0.,   2134.36011,   416.769989
     65,           0.,   2134.36011,           0.
     66,   17735.5449,   1067.18005,       1549.5
     67,   16910.6367,   1067.18005,       1549.5
     68,   16085.7275,   1067.18005,       1549.5
     69,   15260.8184,   1067.18005,       1549.5
     70,   14435.9092,   1067.18005,       1549.5
     71,       13611.,   1067.18005,       1549.5
     72,   12786.0908,   1067.18005,       1549.5
     73,   11961.1816,   1067.18005,       1549.5
     74,   11136.2725,   1067.18005,       1549.5
     75,   10311.3633,   1067.18005,       1549.5
     76,    9486.4541,   1067.18005,       1549.5
     77,        9074.,   1067.18005,       1549.5
     78,    8661.5459,   1067.18005,       1549.5
     79,   7836.63623,   1067.18005,       1549.5
     80,   7011.72705,   1067.18005,       1549.5
     81,   6186.81836,   1067.18005,       1549.5
     82,   5361.90918,   1067.18005,       1549.5
     83,        4537.,   1067.18005,       1549.5
     84,   3712.09082,   1067.18005,       1549.5
     85,   2887.18188,   1067.18005,       1549.5
     86,   2062.27271,   1067.18005,       1549.5
     87,   1237.36365,   1067.18005,       1549.5
     88,   412.454559,   1067.18005,       1549.5
     89,           0.,   1067.18005,       1549.5
     90,   17735.5449,   156.296799,   1124.86279
     91,   16910.6367,   156.296799,   1124.86279
     92,   16085.7275,   156.296799,   1124.86279
     93,   15260.8184,   156.296799,   1124.86279
     94,   14435.9092,   156.296799,   1124.86279
     95,       13611.,   156.296799,   1124.86279
     96,   12786.0908,   156.296799,   1124.86279
     97,   11961.1816,   156.296799,   1124.86279
     98,   11136.2725,   156.296799,   1124.86279
     99,   10311.3633,   156.296799,   1124.86279
    100,    9486.4541,   156.296799,   1124.86279
    101,        9074.,   156.296799,   1124.86279
    102,    8661.5459,   156.296799,   1124.86279
    103,   7836.63623,   156.296799,   1124.86279
    104,   7011.72705,   156.296799,   1124.86279
    105,   6186.81836,   156.296799,   1124.86279
    106,   5361.90918,   156.296799,   1124.86279
    107,        4537.,   156.296799,   1124.86279
    108,   3712.09082,   156.296799,   1124.86279
    109,   2887.18188,   156.296799,   1124.86279
    110,   2062.27271,   156.296799,   1124.86279
    111,   1237.36365,   156.296799,   1124.86279
    112,   412.454559,   156.296799,   1124.86279
    113,           0.,   156.296799,   1124.86279
    114,       18148.,           0.,         927.
    115,       18148.,           0.,           0.
    116,       13611.,           0.,        1052.
    117,        9074.,           0.,        1052.
    118,        4537.,           0.,        1052.
    119,   16085.7275,   2888.94629,   2398.77441
    120,   15260.8184,   2888.94629,   2398.77441
    121,   14435.9092,   2888.94629,   2398.77441
    122,       13611.,   2888.94629,   2398.77441
    123,   12786.0908,   2888.94629,   2398.77441
    124,   11961.1816,   2888.94629,   2398.77441
    125,   11136.2725,   2888.94629,   2398.77441
    126,   10311.3633,   2888.94629,   2398.77441
    127,    9486.4541,   2888.94629,   2398.77441
    128,        9074.,   2888.94629,   2398.77441
    129,    8661.5459,   2888.94629,   2398.77441
    130,   7836.63623,   2888.94629,   2398.77441
    131,   7011.72705,   2888.94629,   2398.77441
    132,   6186.81836,   2888.94629,   2398.77441
    133,   5361.90918,   2888.94629,   2398.77441
    134,        4537.,   2888.94629,   2398.77441
    135,   3712.09082,   2888.94629,   2398.77441
    136,   2887.18188,   2888.94629,   2398.77441
    137,   2062.27271,   2888.94629,   2398.77441
    138,   1237.36365,   2888.94629,   2398.77441
    139,   412.454559,   2888.94629,   2398.77441
    140,           0.,   2888.94629,   2398.77441
    141,       13611.,   2134.36011,        2047.
    142,        9074.,   2134.36011,        2047.
    143,        4537.,   2134.36011,        2047.
    144,       13611.,           0.,         927.
    145,       13611.,           0.,           0.
    146,        9074.,           0.,         927.
    147,        9074.,           0.,           0.
    148,        4537.,           0.,         927.
    149,        4537.,           0.,           0.
    150,       13611.,   2134.36011,   416.769989
    151,       13611.,   2134.36011,           0.
    152,        9074.,   2134.36011,   416.769989
    153,        9074.,   2134.36011,           0.
    154,        4537.,   2134.36011,   416.769989
    155,        4537.,   2134.36011,           0.
    156,   17941.7734,   2888.94629,   2398.77441
    157,       18148.,   2323.00659,    2134.9436
    158,       18148.,   2511.65308,   2222.88721
    159,       18148.,    2700.2998,   2310.83081
    160,       18148.,   1249.35669,   1634.42749
    161,       18148.,   1431.53333,   1719.35486
    162,       18148.,   1613.70996,   1804.28235
    163,       18148.,    1795.8866,   1889.20984
    164,       18148.,    338.47345,   1209.79016
    165,       18148.,   520.650085,   1294.71765
    166,       18148.,   702.826721,   1379.64514
    167,       18148.,   885.003357,   1464.57251
    168,       18148.,  -565.939819,   788.169128
    169,       18148.,  -377.293182,   876.112732
    170,       18148.,  -188.646591,   964.056396
    171,   17941.7734,  -754.586365,   700.225464
    172,   17116.8633,  -754.586365,   700.225464
    173,   17323.0918,  -754.586365,   700.225464
    174,   17529.3184,  -754.586365,   700.225464
    175,   16291.9541,  -754.586365,   700.225464
    176,   16498.1816,  -754.586365,   700.225464
    177,   16704.4082,  -754.586365,   700.225464
    178,   15467.0459,  -754.586365,   700.225464
    179,   15673.2725,  -754.586365,   700.225464
    180,      15879.5,  -754.586365,   700.225464
    181,   14642.1367,  -754.586365,   700.225464
    182,   14848.3633,  -754.586365,   700.225464
    183,   15054.5908,  -754.586365,   700.225464
    184,   13817.2275,  -754.586365,   700.225464
    185,   14023.4541,  -754.586365,   700.225464
    186,   14229.6816,  -754.586365,   700.225464
    187,   12992.3184,  -754.586365,   700.225464
    188,   13198.5459,  -754.586365,   700.225464
    189,   13404.7725,  -754.586365,   700.225464
    190,   12167.4092,  -754.586365,   700.225464
    191,   12373.6367,  -754.586365,   700.225464
    192,   12579.8633,  -754.586365,   700.225464
    193,      11342.5,  -754.586365,   700.225464
    194,   11548.7275,  -754.586365,   700.225464
    195,   11754.9541,  -754.586365,   700.225464
    196,   10517.5908,  -754.586365,   700.225464
    197,   10723.8184,  -754.586365,   700.225464
    198,   10930.0459,  -754.586365,   700.225464
    199,   9692.68164,  -754.586365,   700.225464
    200,   9898.90918,  -754.586365,   700.225464
    201,   10105.1367,  -754.586365,   700.225464
    202,   9280.22754,  -754.586365,   700.225464
    203,   8867.77246,  -754.586365,   700.225464
    204,   8042.86377,  -754.586365,   700.225464
    205,   8249.09082,  -754.586365,   700.225464
    206,   8455.31836,  -754.586365,   700.225464
    207,   7217.95459,  -754.586365,   700.225464
    208,   7424.18164,  -754.586365,   700.225464
    209,   7630.40918,  -754.586365,   700.225464
    210,   6393.04541,  -754.586365,   700.225464
    211,   6599.27295,  -754.586365,   700.225464
    212,       6805.5,  -754.586365,   700.225464
    213,   5568.13623,  -754.586365,   700.225464
    214,   5774.36377,  -754.586365,   700.225464
    215,   5980.59082,  -754.586365,   700.225464
    216,   4743.22705,  -754.586365,   700.225464
    217,   4949.45459,  -754.586365,   700.225464
    218,   5155.68164,  -754.586365,   700.225464
    219,   3918.31812,  -754.586365,   700.225464
    220,   4124.54541,  -754.586365,   700.225464
    221,   4330.77295,  -754.586365,   700.225464
    222,   3093.40918,  -754.586365,   700.225464
    223,   3299.63647,  -754.586365,   700.225464
    224,   3505.86353,  -754.586365,   700.225464
    225,       2268.5,  -754.586365,   700.225464
    226,   2474.72729,  -754.586365,   700.225464
    227,   2680.95459,  -754.586365,   700.225464
    228,   1443.59094,  -754.586365,   700.225464
    229,   1649.81824,  -754.586365,   700.225464
    230,   1856.04541,  -754.586365,   700.225464
    231,   618.681824,  -754.586365,   700.225464
    232,   824.909119,  -754.586365,   700.225464
    233,   1031.13635,  -754.586365,   700.225464
    234,    206.22728,  -754.586365,   700.225464
    235,           0.,  -565.939819,   788.169128
    236,           0.,  -377.293182,   876.112732
    237,           0.,  -188.646591,   964.056396
    238,           0.,           0.,   185.399994
    239,           0.,           0.,   370.799988
    240,           0.,           0.,   556.200012
    241,           0.,           0.,   741.599976
    242,   17116.8633,   2888.94629,   2398.77441
    243,   17323.0918,   2888.94629,   2398.77441
    244,   17529.3184,   2888.94629,   2398.77441
    245,       18148.,   2134.36011,   620.548767
    246,       18148.,   2134.36011,   824.327515
    247,       18148.,   2134.36011,    1028.1062
    248,       18148.,   2134.36011,   1231.88501
    249,       18148.,   2134.36011,    1435.6637
    250,       18148.,   2134.36011,    1639.4425
    251,       18148.,   2134.36011,   1843.22119
    252,       18148.,   2134.36011,   208.384995
    253,   17941.7734,   1978.06323,   1974.13721
    254,   17116.8633,   1978.06323,   1974.13721
    255,   17323.0918,   1978.06323,   1974.13721
    256,   17529.3184,   1978.06323,   1974.13721
    257,   16291.9541,   1978.06323,   1974.13721
    258,   16498.1816,   1978.06323,   1974.13721
    259,   16704.4082,   1978.06323,   1974.13721
    260,   15467.0459,   1978.06323,   1974.13721
    261,   15673.2725,   1978.06323,   1974.13721
    262,      15879.5,   1978.06323,   1974.13721
    263,   14642.1367,   1978.06323,   1974.13721
    264,   14848.3633,   1978.06323,   1974.13721
    265,   15054.5908,   1978.06323,   1974.13721
    266,   13817.2275,   1978.06323,   1974.13721
    267,   14023.4541,   1978.06323,   1974.13721
    268,   14229.6816,   1978.06323,   1974.13721
    269,   12992.3184,   1978.06323,   1974.13721
    270,   13198.5459,   1978.06323,   1974.13721
    271,   13404.7725,   1978.06323,   1974.13721
    272,   12167.4092,   1978.06323,   1974.13721
    273,   12373.6367,   1978.06323,   1974.13721
    274,   12579.8633,   1978.06323,   1974.13721
    275,      11342.5,   1978.06323,   1974.13721
    276,   11548.7275,   1978.06323,   1974.13721
    277,   11754.9541,   1978.06323,   1974.13721
    278,   10517.5908,   1978.06323,   1974.13721
    279,   10723.8184,   1978.06323,   1974.13721
    280,   10930.0459,   1978.06323,   1974.13721
    281,   9692.68164,   1978.06323,   1974.13721
    282,   9898.90918,   1978.06323,   1974.13721
    283,   10105.1367,   1978.06323,   1974.13721
    284,   9280.22754,   1978.06323,   1974.13721
    285,   8867.77246,   1978.06323,   1974.13721
    286,   8042.86377,   1978.06323,   1974.13721
    287,   8249.09082,   1978.06323,   1974.13721
    288,   8455.31836,   1978.06323,   1974.13721
    289,   7217.95459,   1978.06323,   1974.13721
    290,   7424.18164,   1978.06323,   1974.13721
    291,   7630.40918,   1978.06323,   1974.13721
    292,   6393.04541,   1978.06323,   1974.13721
    293,   6599.27295,   1978.06323,   1974.13721
    294,       6805.5,   1978.06323,   1974.13721
    295,   5568.13623,   1978.06323,   1974.13721
    296,   5774.36377,   1978.06323,   1974.13721
    297,   5980.59082,   1978.06323,   1974.13721
    298,   4743.22705,   1978.06323,   1974.13721
    299,   4949.45459,   1978.06323,   1974.13721
    300,   5155.68164,   1978.06323,   1974.13721
    301,   3918.31812,   1978.06323,   1974.13721
    302,   4124.54541,   1978.06323,   1974.13721
    303,   4330.77295,   1978.06323,   1974.13721
    304,   3093.40918,   1978.06323,   1974.13721
    305,   3299.63647,   1978.06323,   1974.13721
    306,   3505.86353,   1978.06323,   1974.13721
    307,       2268.5,   1978.06323,   1974.13721
    308,   2474.72729,   1978.06323,   1974.13721
    309,   2680.95459,   1978.06323,   1974.13721
    310,   1443.59094,   1978.06323,   1974.13721
    311,   1649.81824,   1978.06323,   1974.13721
    312,   1856.04541,   1978.06323,   1974.13721
    313,   618.681824,   1978.06323,   1974.13721
    314,   824.909119,   1978.06323,   1974.13721
    315,   1031.13635,   1978.06323,   1974.13721
    316,    206.22728,   1978.06323,   1974.13721
    317,           0.,   2134.36011,   620.548767
    318,           0.,   2134.36011,   824.327515
    319,           0.,   2134.36011,    1028.1062
    320,           0.,   2134.36011,   1231.88501
    321,           0.,   2134.36011,    1435.6637
    322,           0.,   2134.36011,    1639.4425
    323,           0.,   2134.36011,   1843.22119
    324,           0.,   2134.36011,   208.384995
    325,   17941.7734,   1067.18005,       1549.5
    326,   17116.8633,   1067.18005,       1549.5
    327,   17323.0918,   1067.18005,       1549.5
    328,   17529.3184,   1067.18005,       1549.5
    329,   16291.9541,   1067.18005,       1549.5
    330,   16498.1816,   1067.18005,       1549.5
    331,   16704.4082,   1067.18005,       1549.5
    332,   15467.0459,   1067.18005,       1549.5
    333,   15673.2725,   1067.18005,       1549.5
    334,      15879.5,   1067.18005,       1549.5
    335,   14642.1367,   1067.18005,       1549.5
    336,   14848.3633,   1067.18005,       1549.5
    337,   15054.5908,   1067.18005,       1549.5
    338,   13817.2275,   1067.18005,       1549.5
    339,   14023.4541,   1067.18005,       1549.5
    340,   14229.6816,   1067.18005,       1549.5
    341,   12992.3184,   1067.18005,       1549.5
    342,   13198.5459,   1067.18005,       1549.5
    343,   13404.7725,   1067.18005,       1549.5
    344,   12167.4092,   1067.18005,       1549.5
    345,   12373.6367,   1067.18005,       1549.5
    346,   12579.8633,   1067.18005,       1549.5
    347,      11342.5,   1067.18005,       1549.5
    348,   11548.7275,   1067.18005,       1549.5
    349,   11754.9541,   1067.18005,       1549.5
    350,   10517.5908,   1067.18005,       1549.5
    351,   10723.8184,   1067.18005,       1549.5
    352,   10930.0459,   1067.18005,       1549.5
    353,   9692.68164,   1067.18005,       1549.5
    354,   9898.90918,   1067.18005,       1549.5
    355,   10105.1367,   1067.18005,       1549.5
    356,   9280.22754,   1067.18005,       1549.5
    357,   8867.77246,   1067.18005,       1549.5
    358,   8042.86377,   1067.18005,       1549.5
    359,   8249.09082,   1067.18005,       1549.5
    360,   8455.31836,   1067.18005,       1549.5
    361,   7217.95459,   1067.18005,       1549.5
    362,   7424.18164,   1067.18005,       1549.5
    363,   7630.40918,   1067.18005,       1549.5
    364,   6393.04541,   1067.18005,       1549.5
    365,   6599.27295,   1067.18005,       1549.5
    366,       6805.5,   1067.18005,       1549.5
    367,   5568.13623,   1067.18005,       1549.5
    368,   5774.36377,   1067.18005,       1549.5
    369,   5980.59082,   1067.18005,       1549.5
    370,   4743.22705,   1067.18005,       1549.5
    371,   4949.45459,   1067.18005,       1549.5
    372,   5155.68164,   1067.18005,       1549.5
    373,   3918.31812,   1067.18005,       1549.5
    374,   4124.54541,   1067.18005,       1549.5
    375,   4330.77295,   1067.18005,       1549.5
    376,   3093.40918,   1067.18005,       1549.5
    377,   3299.63647,   1067.18005,       1549.5
    378,   3505.86353,   1067.18005,       1549.5
    379,       2268.5,   1067.18005,       1549.5
    380,   2474.72729,   1067.18005,       1549.5
    381,   2680.95459,   1067.18005,       1549.5
    382,   1443.59094,   1067.18005,       1549.5
    383,   1649.81824,   1067.18005,       1549.5
    384,   1856.04541,   1067.18005,       1549.5
    385,   618.681824,   1067.18005,       1549.5
    386,   824.909119,   1067.18005,       1549.5
    387,   1031.13635,   1067.18005,       1549.5
    388,    206.22728,   1067.18005,       1549.5
    389,           0.,   1249.35669,   1634.42749
    390,           0.,   1431.53333,   1719.35486
    391,           0.,   1613.70996,   1804.28235
    392,           0.,    1795.8866,   1889.20984
    393,   17941.7734,   156.296799,   1124.86279
    394,   17116.8633,   156.296799,   1124.86279
    395,   17323.0918,   156.296799,   1124.86279
    396,   17529.3184,   156.296799,   1124.86279
    397,   16291.9541,   156.296799,   1124.86279
    398,   16498.1816,   156.296799,   1124.86279
    399,   16704.4082,   156.296799,   1124.86279
    400,   15467.0459,   156.296799,   1124.86279
    401,   15673.2725,   156.296799,   1124.86279
    402,      15879.5,   156.296799,   1124.86279
    403,   14642.1367,   156.296799,   1124.86279
    404,   14848.3633,   156.296799,   1124.86279
    405,   15054.5908,   156.296799,   1124.86279
    406,   13817.2275,   156.296799,   1124.86279
    407,   14023.4541,   156.296799,   1124.86279
    408,   14229.6816,   156.296799,   1124.86279
    409,   12992.3184,   156.296799,   1124.86279
    410,   13198.5459,   156.296799,   1124.86279
    411,   13404.7725,   156.296799,   1124.86279
    412,   12167.4092,   156.296799,   1124.86279
    413,   12373.6367,   156.296799,   1124.86279
    414,   12579.8633,   156.296799,   1124.86279
    415,      11342.5,   156.296799,   1124.86279
    416,   11548.7275,   156.296799,   1124.86279
    417,   11754.9541,   156.296799,   1124.86279
    418,   10517.5908,   156.296799,   1124.86279
    419,   10723.8184,   156.296799,   1124.86279
    420,   10930.0459,   156.296799,   1124.86279
    421,   9692.68164,   156.296799,   1124.86279
    422,   9898.90918,   156.296799,   1124.86279
    423,   10105.1367,   156.296799,   1124.86279
    424,   9280.22754,   156.296799,   1124.86279
    425,   8867.77246,   156.296799,   1124.86279
    426,   8042.86377,   156.296799,   1124.86279
    427,   8249.09082,   156.296799,   1124.86279
    428,   8455.31836,   156.296799,   1124.86279
    429,   7217.95459,   156.296799,   1124.86279
    430,   7424.18164,   156.296799,   1124.86279
    431,   7630.40918,   156.296799,   1124.86279
    432,   6393.04541,   156.296799,   1124.86279
    433,   6599.27295,   156.296799,   1124.86279
    434,       6805.5,   156.296799,   1124.86279
    435,   5568.13623,   156.296799,   1124.86279
    436,   5774.36377,   156.296799,   1124.86279
    437,   5980.59082,   156.296799,   1124.86279
    438,   4743.22705,   156.296799,   1124.86279
    439,   4949.45459,   156.296799,   1124.86279
    440,   5155.68164,   156.296799,   1124.86279
    441,   3918.31812,   156.296799,   1124.86279
    442,   4124.54541,   156.296799,   1124.86279
    443,   4330.77295,   156.296799,   1124.86279
    444,   3093.40918,   156.296799,   1124.86279
    445,   3299.63647,   156.296799,   1124.86279
    446,   3505.86353,   156.296799,   1124.86279
    447,       2268.5,   156.296799,   1124.86279
    448,   2474.72729,   156.296799,   1124.86279
    449,   2680.95459,   156.296799,   1124.86279
    450,   1443.59094,   156.296799,   1124.86279
    451,   1649.81824,   156.296799,   1124.86279
    452,   1856.04541,   156.296799,   1124.86279
    453,   618.681824,   156.296799,   1124.86279
    454,   824.909119,   156.296799,   1124.86279
    455,   1031.13635,   156.296799,   1124.86279
    456,    206.22728,   156.296799,   1124.86279
    457,           0.,    338.47345,   1209.79016
    458,           0.,   520.650085,   1294.71765
    459,           0.,   702.826721,   1379.64514
    460,           0.,   885.003357,   1464.57251
    461,       18148.,           0.,   185.399994
    462,       18148.,           0.,   370.799988
    463,       18148.,           0.,   556.200012
    464,       18148.,           0.,   741.599976
    465,       13611.,  -565.939819,   788.169128
    466,       13611.,  -377.293182,   876.112732
    467,       13611.,  -188.646591,   964.056396
    468,        9074.,  -565.939819,   788.169128
    469,        9074.,  -377.293182,   876.112732
    470,        9074.,  -188.646591,   964.056396
    471,        4537.,  -565.939819,   788.169128
    472,        4537.,  -377.293182,   876.112732
    473,        4537.,  -188.646591,   964.056396
    474,           0.,    194.03273,   880.615479
    475,           0.,    388.06546,   834.230896
    476,           0.,   582.098206,   787.846375
    477,           0.,    776.13092,   741.461792
    478,           0.,   970.163635,   695.077271
    479,           0.,   1164.19641,   648.692749
    480,           0.,   1358.22913,   602.308167
    481,           0.,   1552.26184,   555.923645
    482,           0.,   1746.29456,   509.539093
    483,           0.,   1940.32727,   463.154541
    484,   16291.9541,   2888.94629,   2398.77441
    485,   16498.1816,   2888.94629,   2398.77441
    486,   16704.4082,   2888.94629,   2398.77441
    487,   15467.0459,   2888.94629,   2398.77441
    488,   15673.2725,   2888.94629,   2398.77441
    489,      15879.5,   2888.94629,   2398.77441
    490,   14642.1367,   2888.94629,   2398.77441
    491,   14848.3633,   2888.94629,   2398.77441
    492,   15054.5908,   2888.94629,   2398.77441
    493,   13817.2275,   2888.94629,   2398.77441
    494,   14023.4541,   2888.94629,   2398.77441
    495,   14229.6816,   2888.94629,   2398.77441
    496,   12992.3184,   2888.94629,   2398.77441
    497,   13198.5459,   2888.94629,   2398.77441
    498,   13404.7725,   2888.94629,   2398.77441
    499,   12167.4092,   2888.94629,   2398.77441
    500,   12373.6367,   2888.94629,   2398.77441
    501,   12579.8633,   2888.94629,   2398.77441
    502,      11342.5,   2888.94629,   2398.77441
    503,   11548.7275,   2888.94629,   2398.77441
    504,   11754.9541,   2888.94629,   2398.77441
    505,   10517.5908,   2888.94629,   2398.77441
    506,   10723.8184,   2888.94629,   2398.77441
    507,   10930.0459,   2888.94629,   2398.77441
    508,   9692.68164,   2888.94629,   2398.77441
    509,   9898.90918,   2888.94629,   2398.77441
    510,   10105.1367,   2888.94629,   2398.77441
    511,   9280.22754,   2888.94629,   2398.77441
    512,   8867.77246,   2888.94629,   2398.77441
    513,   8042.86377,   2888.94629,   2398.77441
    514,   8249.09082,   2888.94629,   2398.77441
    515,   8455.31836,   2888.94629,   2398.77441
    516,   7217.95459,   2888.94629,   2398.77441
    517,   7424.18164,   2888.94629,   2398.77441
    518,   7630.40918,   2888.94629,   2398.77441
    519,   6393.04541,   2888.94629,   2398.77441
    520,   6599.27295,   2888.94629,   2398.77441
    521,       6805.5,   2888.94629,   2398.77441
    522,   5568.13623,   2888.94629,   2398.77441
    523,   5774.36377,   2888.94629,   2398.77441
    524,   5980.59082,   2888.94629,   2398.77441
    525,   4743.22705,   2888.94629,   2398.77441
    526,   4949.45459,   2888.94629,   2398.77441
    527,   5155.68164,   2888.94629,   2398.77441
    528,   3918.31812,   2888.94629,   2398.77441
    529,   4124.54541,   2888.94629,   2398.77441
    530,   4330.77295,   2888.94629,   2398.77441
    531,   3093.40918,   2888.94629,   2398.77441
    532,   3299.63647,   2888.94629,   2398.77441
    533,   3505.86353,   2888.94629,   2398.77441
    534,       2268.5,   2888.94629,   2398.77441
    535,   2474.72729,   2888.94629,   2398.77441
    536,   2680.95459,   2888.94629,   2398.77441
    537,   1443.59094,   2888.94629,   2398.77441
    538,   1649.81824,   2888.94629,   2398.77441
    539,   1856.04541,   2888.94629,   2398.77441
    540,   618.681824,   2888.94629,   2398.77441
    541,   824.909119,   2888.94629,   2398.77441
    542,   1031.13635,   2888.94629,   2398.77441
    543,    206.22728,   2888.94629,   2398.77441
    544,           0.,   2323.00659,    2134.9436
    545,           0.,   2511.65308,   2222.88721
    546,           0.,    2700.2998,   2310.83081
    547,       18148.,    194.03273,   880.615479
    548,       18148.,    388.06546,   834.230896
    549,       18148.,   582.098206,   787.846375
    550,       18148.,    776.13092,   741.461792
    551,       18148.,   970.163635,   695.077271
    552,       18148.,   1164.19641,   648.692749
    553,       18148.,   1358.22913,   602.308167
    554,       18148.,   1552.26184,   555.923645
    555,       18148.,   1746.29456,   509.539093
    556,       18148.,   1940.32727,   463.154541
    557,       13611.,   1249.35669,   1634.42749
    558,       13611.,   1431.53333,   1719.35486
    559,       13611.,   1613.70996,   1804.28235
    560,       13611.,    1795.8866,   1889.20984
    561,       13611.,    338.47345,   1209.79016
    562,       13611.,   520.650085,   1294.71765
    563,       13611.,   702.826721,   1379.64514
    564,       13611.,   885.003357,   1464.57251
    565,        9074.,   1249.35669,   1634.42749
    566,        9074.,   1431.53333,   1719.35486
    567,        9074.,   1613.70996,   1804.28235
    568,        9074.,    1795.8866,   1889.20984
    569,        9074.,    338.47345,   1209.79016
    570,        9074.,   520.650085,   1294.71765
    571,        9074.,   702.826721,   1379.64514
    572,        9074.,   885.003357,   1464.57251
    573,        4537.,   1249.35669,   1634.42749
    574,        4537.,   1431.53333,   1719.35486
    575,        4537.,   1613.70996,   1804.28235
    576,        4537.,    1795.8866,   1889.20984
    577,        4537.,    338.47345,   1209.79016
    578,        4537.,   520.650085,   1294.71765
    579,        4537.,   702.826721,   1379.64514
    580,        4537.,   885.003357,   1464.57251
    581,       13611.,           0.,   185.399994
    582,       13611.,           0.,   370.799988
    583,       13611.,           0.,   556.200012
    584,       13611.,           0.,   741.599976
    585,        9074.,           0.,   185.399994
    586,        9074.,           0.,   370.799988
    587,        9074.,           0.,   556.200012
    588,        9074.,           0.,   741.599976
    589,        4537.,           0.,   185.399994
    590,        4537.,           0.,   370.799988
    591,        4537.,           0.,   556.200012
    592,        4537.,           0.,   741.599976
    593,       13611.,   2323.00659,    2134.9436
    594,       13611.,   2511.65308,   2222.88721
    595,       13611.,    2700.2998,   2310.83081
    596,        9074.,   2323.00659,    2134.9436
    597,        9074.,   2511.65308,   2222.88721
    598,        9074.,    2700.2998,   2310.83081
    599,        4537.,   2323.00659,    2134.9436
    600,        4537.,   2511.65308,   2222.88721
    601,        4537.,    2700.2998,   2310.83081
    602,       13611.,   2134.36011,   620.548767
    603,       13611.,   2134.36011,   824.327515
    604,       13611.,   2134.36011,    1028.1062
    605,       13611.,   2134.36011,   1231.88501
    606,       13611.,   2134.36011,    1435.6637
    607,       13611.,   2134.36011,    1639.4425
    608,       13611.,   2134.36011,   1843.22119
    609,       13611.,   2134.36011,   208.384995
    610,        9074.,   2134.36011,   620.548767
    611,        9074.,   2134.36011,   824.327515
    612,        9074.,   2134.36011,    1028.1062
    613,        9074.,   2134.36011,   1231.88501
    614,        9074.,   2134.36011,    1435.6637
    615,        9074.,   2134.36011,    1639.4425
    616,        9074.,   2134.36011,   1843.22119
    617,        9074.,   2134.36011,   208.384995
    618,        4537.,   2134.36011,   620.548767
    619,        4537.,   2134.36011,   824.327515
    620,        4537.,   2134.36011,    1028.1062
    621,        4537.,   2134.36011,   1231.88501
    622,        4537.,   2134.36011,    1435.6637
    623,        4537.,   2134.36011,    1639.4425
    624,        4537.,   2134.36011,   1843.22119
    625,        4537.,   2134.36011,   208.384995
    626,       13611.,    194.03273,   880.615479
    627,       13611.,    388.06546,   834.230896
    628,       13611.,   582.098206,   787.846375
    629,       13611.,    776.13092,   741.461792
    630,       13611.,   970.163635,   695.077271
    631,       13611.,   1164.19641,   648.692749
    632,       13611.,   1358.22913,   602.308167
    633,       13611.,   1552.26184,   555.923645
    634,       13611.,   1746.29456,   509.539093
    635,       13611.,   1940.32727,   463.154541
    636,        9074.,    194.03273,   880.615479
    637,        9074.,    388.06546,   834.230896
    638,        9074.,   582.098206,   787.846375
    639,        9074.,    776.13092,   741.461792
    640,        9074.,   970.163635,   695.077271
    641,        9074.,   1164.19641,   648.692749
    642,        9074.,   1358.22913,   602.308167
    643,        9074.,   1552.26184,   555.923645
    644,        9074.,   1746.29456,   509.539093
    645,        9074.,   1940.32727,   463.154541
    646,        4537.,    194.03273,   880.615479
    647,        4537.,    388.06546,   834.230896
    648,        4537.,   582.098206,   787.846375
    649,        4537.,    776.13092,   741.461792
    650,        4537.,   970.163635,   695.077271
    651,        4537.,   1164.19641,   648.692749
    652,        4537.,   1358.22913,   602.308167
    653,        4537.,   1552.26184,   555.923645
    654,        4537.,   1746.29456,   509.539093
    655,        4537.,   1940.32727,   463.154541
*Element, type=B31
1,   1, 156
2, 156,   2
3,   3, 157
4, 157, 158
5, 158, 159
6, 159,   2
7, 4, 3
 8,   5, 160
 9, 160, 161
10, 161, 162
11, 162, 163
12, 163,   4
13,   6, 164
14, 164, 165
15, 165, 166
16, 166, 167
17, 167,   5
18, 7, 6
19,   8, 168
20, 168, 169
21, 169, 170
22, 170,   7
23,   9, 171
24, 171,   8
25,  10, 172
26, 172, 173
27, 173, 174
28, 174,   9
29,  11, 175
30, 175, 176
31, 176, 177
32, 177,  10
33,  12, 178
34, 178, 179
35, 179, 180
36, 180,  11
37,  13, 181
38, 181, 182
39, 182, 183
40, 183,  12
41,  14, 184
42, 184, 185
43, 185, 186
44, 186,  13
45,  15, 187
46, 187, 188
47, 188, 189
48, 189,  14
49,  16, 190
50, 190, 191
51, 191, 192
52, 192,  15
53,  17, 193
54, 193, 194
55, 194, 195
56, 195,  16
57,  18, 196
58, 196, 197
59, 197, 198
60, 198,  17
61,  19, 199
62, 199, 200
63, 200, 201
64, 201,  18
65,  20, 202
66, 202,  19
67,  21, 203
68, 203,  20
69,  22, 204
70, 204, 205
71, 205, 206
72, 206,  21
73,  23, 207
74, 207, 208
75, 208, 209
76, 209,  22
77,  24, 210
78, 210, 211
79, 211, 212
80, 212,  23
81,  25, 213
82, 213, 214
83, 214, 215
84, 215,  24
85,  26, 216
86, 216, 217
87, 217, 218
88, 218,  25
89,  27, 219
90, 219, 220
91, 220, 221
92, 221,  26
93,  28, 222
94, 222, 223
95, 223, 224
96, 224,  27
 97,  29, 225
 98, 225, 226
 99, 226, 227
100, 227,  28
101,  30, 228
102, 228, 229
103, 229, 230
104, 230,  29
105,  31, 231
106, 231, 232
107, 232, 233
108, 233,  30
109,  32, 234
110, 234,  31
111,  32, 235
112, 235, 236
113, 236, 237
114, 237,  33
115, 34, 33
116,  35, 238
117, 238, 239
118, 239, 240
119, 240, 241
120, 241,  34
121,  36, 242
122, 242, 243
123, 243, 244
124, 244,   1
125,  37, 245
126, 245, 246
127, 246, 247
128, 247, 248
129, 248, 249
130, 249, 250
131, 250, 251
132, 251,   3
133,  38, 252
134, 252,  37
135,  39, 253
136, 253,   4
137,  40, 254
138, 254, 255
139, 255, 256
140, 256,  39
141,  41, 257
142, 257, 258
143, 258, 259
144, 259,  40
145,  42, 260
146, 260, 261
147, 261, 262
148, 262,  41
149,  43, 263
150, 263, 264
151, 264, 265
152, 265,  42
153,  44, 266
154, 266, 267
155, 267, 268
156, 268,  43
157,  45, 269
158, 269, 270
159, 270, 271
160, 271,  44
161,  46, 272
162, 272, 273
163, 273, 274
164, 274,  45
165,  47, 275
166, 275, 276
167, 276, 277
168, 277,  46
169,  48, 278
170, 278, 279
171, 279, 280
172, 280,  47
173,  49, 281
174, 281, 282
175, 282, 283
176, 283,  48
177,  50, 284
178, 284,  49
179,  51, 285
180, 285,  50
181,  52, 286
182, 286, 287
183, 287, 288
184, 288,  51
185,  53, 289
186, 289, 290
187, 290, 291
188, 291,  52
189,  54, 292
190, 292, 293
191, 293, 294
192, 294,  53
193,  55, 295
194, 295, 296
195, 296, 297
196, 297,  54
197,  56, 298
198, 298, 299
199, 299, 300
200, 300,  55
201,  57, 301
202, 301, 302
203, 302, 303
204, 303,  56
205,  58, 304
206, 304, 305
207, 305, 306
208, 306,  57
209,  59, 307
210, 307, 308
211, 308, 309
212, 309,  58
213,  60, 310
214, 310, 311
215, 311, 312
216, 312,  59
217,  61, 313
218, 313, 314
219, 314, 315
220, 315,  60
221,  62, 316
222, 316,  61
223, 62, 63
224,  64, 317
225, 317, 318
226, 318, 319
227, 319, 320
228, 320, 321
229, 321, 322
230, 322, 323
231, 323,  63
232,  65, 324
233, 324,  64
234,  66, 325
235, 325,   5
236,  67, 326
237, 326, 327
238, 327, 328
239, 328,  66
240,  68, 329
241, 329, 330
242, 330, 331
243, 331,  67
244,  69, 332
245, 332, 333
246, 333, 334
247, 334,  68
248,  70, 335
249, 335, 336
250, 336, 337
251, 337,  69
252,  71, 338
253, 338, 339
254, 339, 340
255, 340,  70
256,  72, 341
257, 341, 342
258, 342, 343
259, 343,  71
260,  73, 344
261, 344, 345
262, 345, 346
263, 346,  72
264,  74, 347
265, 347, 348
266, 348, 349
267, 349,  73
268,  75, 350
269, 350, 351
270, 351, 352
271, 352,  74
272,  76, 353
273, 353, 354
274, 354, 355
275, 355,  75
276,  77, 356
277, 356,  76
278,  78, 357
279, 357,  77
280,  79, 358
281, 358, 359
282, 359, 360
283, 360,  78
284,  80, 361
285, 361, 362
286, 362, 363
287, 363,  79
288,  81, 364
289, 364, 365
290, 365, 366
291, 366,  80
292,  82, 367
293, 367, 368
294, 368, 369
295, 369,  81
296,  83, 370
297, 370, 371
298, 371, 372
299, 372,  82
300,  84, 373
301, 373, 374
302, 374, 375
303, 375,  83
304,  85, 376
305, 376, 377
306, 377, 378
307, 378,  84
308,  86, 379
309, 379, 380
310, 380, 381
311, 381,  85
312,  87, 382
313, 382, 383
314, 383, 384
315, 384,  86
316,  88, 385
317, 385, 386
318, 386, 387
319, 387,  87
320,  89, 388
321, 388,  88
322,  89, 389
323, 389, 390
324, 390, 391
325, 391, 392
326, 392,  62
327,  90, 393
328, 393,   6
329,  91, 394
330, 394, 395
331, 395, 396
332, 396,  90
333,  92, 397
334, 397, 398
335, 398, 399
336, 399,  91
337,  93, 400
338, 400, 401
339, 401, 402
340, 402,  92
341,  94, 403
342, 403, 404
343, 404, 405
344, 405,  93
345,  95, 406
346, 406, 407
347, 407, 408
348, 408,  94
349,  96, 409
350, 409, 410
351, 410, 411
352, 411,  95
353,  97, 412
354, 412, 413
355, 413, 414
356, 414,  96
357,  98, 415
358, 415, 416
359, 416, 417
360, 417,  97
361,  99, 418
362, 418, 419
363, 419, 420
364, 420,  98
365, 100, 421
366, 421, 422
367, 422, 423
368, 423,  99
369, 101, 424
370, 424, 100
371, 102, 425
372, 425, 101
373, 103, 426
374, 426, 427
375, 427, 428
376, 428, 102
377, 104, 429
378, 429, 430
379, 430, 431
380, 431, 103
381, 105, 432
382, 432, 433
383, 433, 434
384, 434, 104
385, 106, 435
386, 435, 436
387, 436, 437
388, 437, 105
389, 107, 438
390, 438, 439
391, 439, 440
392, 440, 106
393, 108, 441
394, 441, 442
395, 442, 443
396, 443, 107
397, 109, 444
398, 444, 445
399, 445, 446
400, 446, 108
401, 110, 447
402, 447, 448
403, 448, 449
404, 449, 109
405, 111, 450
406, 450, 451
407, 451, 452
408, 452, 110
409, 112, 453
410, 453, 454
411, 454, 455
412, 455, 111
413, 113, 456
414, 456, 112
415, 113, 457
416, 457, 458
417, 458, 459
418, 459, 460
419, 460,  89
420, 114,   7
421, 115, 461
422, 461, 462
423, 462, 463
424, 463, 464
425, 464, 114
426,  14, 465
427, 465, 466
428, 466, 467
429, 467, 116
430,  20, 468
431, 468, 469
432, 469, 470
433, 470, 117
434,  26, 471
435, 471, 472
436, 472, 473
437, 473, 118
438,  33, 113
439,  34, 474
440, 474, 475
441, 475, 476
442, 476, 477
443, 477, 478
444, 478, 479
445, 479, 480
446, 480, 481
447, 481, 482
448, 482, 483
449, 483,  64
450, 119, 484
451, 484, 485
452, 485, 486
453, 486,  36
454, 120, 487
455, 487, 488
456, 488, 489
457, 489, 119
458, 121, 490
459, 490, 491
460, 491, 492
461, 492, 120
462, 122, 493
463, 493, 494
464, 494, 495
465, 495, 121
466, 123, 496
467, 496, 497
468, 497, 498
469, 498, 122
470, 124, 499
471, 499, 500
472, 500, 501
473, 501, 123
474, 125, 502
475, 502, 503
476, 503, 504
477, 504, 124
478, 126, 505
479, 505, 506
480, 506, 507
481, 507, 125
482, 127, 508
483, 508, 509
484, 509, 510
485, 510, 126
486, 128, 511
487, 511, 127
488, 129, 512
489, 512, 128
490, 130, 513
491, 513, 514
492, 514, 515
493, 515, 129
494, 131, 516
495, 516, 517
496, 517, 518
497, 518, 130
498, 132, 519
499, 519, 520
500, 520, 521
501, 521, 131
502, 133, 522
503, 522, 523
504, 523, 524
505, 524, 132
506, 134, 525
507, 525, 526
508, 526, 527
509, 527, 133
510, 135, 528
511, 528, 529
512, 529, 530
513, 530, 134
514, 136, 531
515, 531, 532
516, 532, 533
517, 533, 135
518, 137, 534
519, 534, 535
520, 535, 536
521, 536, 136
522, 138, 537
523, 537, 538
524, 538, 539
525, 539, 137
526, 139, 540
527, 540, 541
528, 541, 542
529, 542, 138
530, 140, 543
531, 543, 139
532,  63, 544
533, 544, 545
534, 545, 546
535, 546, 140
536, 114, 547
537, 547, 548
538, 548, 549
539, 549, 550
540, 550, 551
541, 551, 552
542, 552, 553
543, 553, 554
544, 554, 555
545, 555, 556
546, 556,  37
547,  44, 141
548,  71, 557
549, 557, 558
550, 558, 559
551, 559, 560
552, 560,  44
553,  95, 561
554, 561, 562
555, 562, 563
556, 563, 564
557, 564,  71
558, 116,  95
559,  50, 142
560,  77, 565
561, 565, 566
562, 566, 567
563, 567, 568
564, 568,  50
565, 101, 569
566, 569, 570
567, 570, 571
568, 571, 572
569, 572,  77
570, 117, 101
571,  56, 143
572,  83, 573
573, 573, 574
574, 574, 575
575, 575, 576
576, 576,  56
577, 107, 577
578, 577, 578
579, 578, 579
580, 579, 580
581, 580,  83
582, 118, 107
583, 144, 116
584, 145, 581
585, 581, 582
586, 582, 583
587, 583, 584
588, 584, 144
589, 146, 117
590, 147, 585
591, 585, 586
592, 586, 587
593, 587, 588
594, 588, 146
595, 148, 118
596, 149, 589
597, 589, 590
598, 590, 591
599, 591, 592
600, 592, 148
601, 141, 593
602, 593, 594
603, 594, 595
604, 595, 122
605, 142, 596
606, 596, 597
607, 597, 598
608, 598, 128
609, 143, 599
610, 599, 600
611, 600, 601
612, 601, 134
613, 150, 602
614, 602, 603
615, 603, 604
616, 604, 605
617, 605, 606
618, 606, 607
619, 607, 608
620, 608, 141
621, 151, 609
622, 609, 150
623, 152, 610
624, 610, 611
625, 611, 612
626, 612, 613
627, 613, 614
628, 614, 615
629, 615, 616
630, 616, 142
631, 153, 617
632, 617, 152
633, 154, 618
634, 618, 619
635, 619, 620
636, 620, 621
637, 621, 622
638, 622, 623
639, 623, 624
640, 624, 143
641, 155, 625
642, 625, 154
643, 144, 626
644, 626, 627
645, 627, 628
646, 628, 629
647, 629, 630
648, 630, 631
649, 631, 632
650, 632, 633
651, 633, 634
652, 634, 635
653, 635, 150
654, 146, 636
655, 636, 637
656, 637, 638
657, 638, 639
658, 639, 640
659, 640, 641
660, 641, 642
661, 642, 643
662, 643, 644
663, 644, 645
664, 645, 152
665, 148, 646
666, 646, 647
667, 647, 648
668, 648, 649
669, 649, 650
670, 650, 651
671, 651, 652
672, 652, 653
673, 653, 654
674, 654, 655
675, 655, 154
*Nset, nset=P2
   2,   3,   4,   5,   6,   7,   8,  14,  20,  26,  32,  33,  44,  50,  56,  62
  63,  71,  77,  83,  89,  95, 101, 107, 113, 116, 117, 118, 122, 128, 134, 140
 141, 142, 143, 157, 158, 159, 160, 161, 162, 163, 164, 165, 166, 167, 168, 169
 170, 235, 236, 237, 389, 390, 391, 392, 457, 458, 459, 460, 465, 466, 467, 468
 469, 470, 471, 472, 473, 544, 545, 546, 557, 558, 559, 560, 561, 562, 563, 564
 565, 566, 567, 568, 569, 570, 571, 572, 573, 574, 575, 576, 577, 578, 579, 580
 593, 594, 595, 596, 597, 598, 599, 600, 601
*Elset, elset=P2
   3,   4,   5,   6,   7,   8,   9,  10,  11,  12,  13,  14,  15,  16,  17,  18
  19,  20,  21,  22, 111, 112, 113, 114, 223, 322, 323, 324, 325, 326, 415, 416
 417, 418, 419, 426, 427, 428, 429, 430, 431, 432, 433, 434, 435, 436, 437, 438
 532, 533, 534, 535, 547, 548, 549, 550, 551, 552, 553, 554, 555, 556, 557, 558
 559, 560, 561, 562, 563, 564, 565, 566, 567, 568, 569, 570, 571, 572, 573, 574
 575, 576, 577, 578, 579, 580, 581, 582, 601, 602, 603, 604, 605, 606, 607, 608
 609, 610, 611, 612
*Nset, nset=P3
   7,  33,  34,  35, 114, 115, 116, 117, 118, 144, 145, 146, 147, 148, 149, 238
 239, 240, 241, 461, 462, 463, 464, 581, 582, 583, 584, 585, 586, 587, 588, 589
 590, 591, 592
*Elset, elset=P3
 115, 116, 117, 118, 119, 120, 420, 421, 422, 423, 424, 425, 583, 584, 585, 586
 587, 588, 589, 590, 591, 592, 593, 594, 595, 596, 597, 598, 599, 600
*Nset, nset=P4
   3,  37,  38,  63,  64,  65, 141, 142, 143, 150, 151, 152, 153, 154, 155, 245
 246, 247, 248, 249, 250, 251, 252, 317, 318, 319, 320, 321, 322, 323, 324, 602
 603, 604, 605, 606, 607, 608, 609, 610, 611, 612, 613, 614, 615, 616, 617, 618
 619, 620, 621, 622, 623, 624, 625
*Elset, elset=P4
 125, 126, 127, 128, 129, 130, 131, 132, 133, 134, 224, 225, 226, 227, 228, 229
 230, 231, 232, 233, 613, 614, 615, 616, 617, 618, 619, 620, 621, 622, 623, 624
 625, 626, 627, 628, 629, 630, 631, 632, 633, 634, 635, 636, 637, 638, 639, 640
 641, 642
*Nset, nset=P5
   1,   2,   4,   5,   6,   8,   9,  10,  11,  12,  13,  14,  15,  16,  17,  18
  19,  20,  21,  22,  23,  24,  25,  26,  27,  28,  29,  30,  31,  32,  36,  39
  40,  41,  42,  43,  44,  45,  46,  47,  48,  49,  50,  51,  52,  53,  54,  55
  56,  57,  58,  59,  60,  61,  62,  66,  67,  68,  69,  70,  71,  72,  73,  74
  75,  76,  77,  78,  79,  80,  81,  82,  83,  84,  85,  86,  87,  88,  89,  90
  91,  92,  93,  94,  95,  96,  97,  98,  99, 100, 101, 102, 103, 104, 105, 106
 107, 108, 109, 110, 111, 112, 113, 119, 120, 121, 122, 123, 124, 125, 126, 127
 128, 129, 130, 131, 132, 133, 134, 135, 136, 137, 138, 139, 140, 156, 171, 172
 173, 174, 175, 176, 177, 178, 179, 180, 181, 182, 183, 184, 185, 186, 187, 188
 189, 190, 191, 192, 193, 194, 195, 196, 197, 198, 199, 200, 201, 202, 203, 204
 205, 206, 207, 208, 209, 210, 211, 212, 213, 214, 215, 216, 217, 218, 219, 220
 221, 222, 223, 224, 225, 226, 227, 228, 229, 230, 231, 232, 233, 234, 242, 243
 244, 253, 254, 255, 256, 257, 258, 259, 260, 261, 262, 263, 264, 265, 266, 267
 268, 269, 270, 271, 272, 273, 274, 275, 276, 277, 278, 279, 280, 281, 282, 283
 284, 285, 286, 287, 288, 289, 290, 291, 292, 293, 294, 295, 296, 297, 298, 299
 300, 301, 302, 303, 304, 305, 306, 307, 308, 309, 310, 311, 312, 313, 314, 315
 316, 325, 326, 327, 328, 329, 330, 331, 332, 333, 334, 335, 336, 337, 338, 339
 340, 341, 342, 343, 344, 345, 346, 347, 348, 349, 350, 351, 352, 353, 354, 355
 356, 357, 358, 359, 360, 361, 362, 363, 364, 365, 366, 367, 368, 369, 370, 371
 372, 373, 374, 375, 376, 377, 378, 379, 380, 381, 382, 383, 384, 385, 386, 387
 388, 393, 394, 395, 396, 397, 398, 399, 400, 401, 402, 403, 404, 405, 406, 407
 408, 409, 410, 411, 412, 413, 414, 415, 416, 417, 418, 419, 420, 421, 422, 423
 424, 425, 426, 427, 428, 429, 430, 431, 432, 433, 434, 435, 436, 437, 438, 439
 440, 441, 442, 443, 444, 445, 446, 447, 448, 449, 450, 451, 452, 453, 454, 455
 456, 484, 485, 486, 487, 488, 489, 490, 491, 492, 493, 494, 495, 496, 497, 498
 499, 500, 501, 502, 503, 504, 505, 506, 507, 508, 509, 510, 511, 512, 513, 514
 515, 516, 517, 518, 519, 520, 521, 522, 523, 524, 525, 526, 527, 528, 529, 530
 531, 532, 533, 534, 535, 536, 537, 538, 539, 540, 541, 542, 543
*Elset, elset=P5
   1,   2,  23,  24,  25,  26,  27,  28,  29,  30,  31,  32,  33,  34,  35,  36
  37,  38,  39,  40,  41,  42,  43,  44,  45,  46,  47,  48,  49,  50,  51,  52
  53,  54,  55,  56,  57,  58,  59,  60,  61,  62,  63,  64,  65,  66,  67,  68
  69,  70,  71,  72,  73,  74,  75,  76,  77,  78,  79,  80,  81,  82,  83,  84
  85,  86,  87,  88,  89,  90,  91,  92,  93,  94,  95,  96,  97,  98,  99, 100
 101, 102, 103, 104, 105, 106, 107, 108, 109, 110, 121, 122, 123, 124, 135, 136
 137, 138, 139, 140, 141, 142, 143, 144, 145, 146, 147, 148, 149, 150, 151, 152
 153, 154, 155, 156, 157, 158, 159, 160, 161, 162, 163, 164, 165, 166, 167, 168
 169, 170, 171, 172, 173, 174, 175, 176, 177, 178, 179, 180, 181, 182, 183, 184
 185, 186, 187, 188, 189, 190, 191, 192, 193, 194, 195, 196, 197, 198, 199, 200
 201, 202, 203, 204, 205, 206, 207, 208, 209, 210, 211, 212, 213, 214, 215, 216
 217, 218, 219, 220, 221, 222, 234, 235, 236, 237, 238, 239, 240, 241, 242, 243
 244, 245, 246, 247, 248, 249, 250, 251, 252, 253, 254, 255, 256, 257, 258, 259
 260, 261, 262, 263, 264, 265, 266, 267, 268, 269, 270, 271, 272, 273, 274, 275
 276, 277, 278, 279, 280, 281, 282, 283, 284, 285, 286, 287, 288, 289, 290, 291
 292, 293, 294, 295, 296, 297, 298, 299, 300, 301, 302, 303, 304, 305, 306, 307
 308, 309, 310, 311, 312, 313, 314, 315, 316, 317, 318, 319, 320, 321, 327, 328
 329, 330, 331, 332, 333, 334, 335, 336, 337, 338, 339, 340, 341, 342, 343, 344
 345, 346, 347, 348, 349, 350, 351, 352, 353, 354, 355, 356, 357, 358, 359, 360
 361, 362, 363, 364, 365, 366, 367, 368, 369, 370, 371, 372, 373, 374, 375, 376
 377, 378, 379, 380, 381, 382, 383, 384, 385, 386, 387, 388, 389, 390, 391, 392
 393, 394, 395, 396, 397, 398, 399, 400, 401, 402, 403, 404, 405, 406, 407, 408
 409, 410, 411, 412, 413, 414, 450, 451, 452, 453, 454, 455, 456, 457, 458, 459
 460, 461, 462, 463, 464, 465, 466, 467, 468, 469, 470, 471, 472, 473, 474, 475
 476, 477, 478, 479, 480, 481, 482, 483, 484, 485, 486, 487, 488, 489, 490, 491
 492, 493, 494, 495, 496, 497, 498, 499, 500, 501, 502, 503, 504, 505, 506, 507
 508, 509, 510, 511, 512, 513, 514, 515, 516, 517, 518, 519, 520, 521, 522, 523
 524, 525, 526, 527, 528, 529, 530, 531
*Nset, nset=P6
  34,  37,  64, 114, 144, 146, 148, 150, 152, 154, 474, 475, 476, 477, 478, 479
 480, 481, 482, 483, 547, 548, 549, 550, 551, 552, 553, 554, 555, 556, 626, 627
 628, 629, 630, 631, 632, 633, 634, 635, 636, 637, 638, 639, 640, 641, 642, 643
 644, 645, 646, 647, 648, 649, 650, 651, 652, 653, 654, 655
*Elset, elset=P6
 439, 440, 441, 442, 443, 444, 445, 446, 447, 448, 449, 536, 537, 538, 539, 540
 541, 542, 543, 544, 545, 546, 643, 644, 645, 646, 647, 648, 649, 650, 651, 652
 653, 654, 655, 656, 657, 658, 659, 660, 661, 662, 663, 664, 665, 666, 667, 668
 669, 670, 671, 672, 673, 674, 675
** Section: P5  Profile: C100
*Beam Section, elset=P5, material=S235JR, poisson = 0.3, temperature=GRADIENTS, section=ARBITRARY
5, 29.1607, 30., 29.1607, 48., 4.
-16.8393, 48., 4.
-16.8393, -48., 4.
29.1607, -48., 4.
29.1607, -30., 4.
0.,0.906351,0.422525
** Section: P2  Profile: C125
*Beam Section, elset=P2, material=S355JR, poisson = 0.3, temperature=GRADIENTS, section=ARBITRARY
5, 36.9745, 37.5, 36.9745, 60.5, 4.
-21.5255, 60.5, 4.
-21.5255, -60.5, 4.
36.9745, -60.5, 4.
36.9745, -37.5, 4.
1.,0.,0.
** Section: P3  Profile: C125
*Beam Section, elset=P3, material=S235JR, poisson = 0.3, temperature=GRADIENTS, section=ARBITRARY
5, 36.9745, 37.5, 36.9745, 60.5, 4.
-21.5255, 60.5, 4.
-21.5255, -60.5, 4.
36.9745, -60.5, 4.
36.9745, -37.5, 4.
1.,0.,0.
** Section: P4  Profile: C125
*Beam Section, elset=P4, material=S235JR, poisson = 0.3, temperature=GRADIENTS, section=ARBITRARY
5, 36.9745, 37.5, 36.9745, 60.5, 4.
-21.5255, 60.5, 4.
-21.5255, -60.5, 4.
36.9745, -60.5, 4.
36.9745, -37.5, 4.
1.,0.,0.
** Section: P6  Profile: C50
*Beam Section, elset=P6, material=S235JR, poisson = 0.3, temperature=GRADIENTS, section=ARBITRARY
3, 16.875, 22.5, -5.625, 22.5, 5.
-5.625, -22.5, 5.
16.875, -22.5, 5.
1.,0.,0.
*End Part
**  
**
** ASSEMBLY
**
*Assembly, name=Assembly
**  
*Instance, name=FRAME, part=SteelFrame
*End Instance
**  
*Nset, nset=BASES, instance=FRAME
  35,  38,  65, 115, 145, 147, 149, 151, 153, 155
*Nset, nset=CONTACT_ROW_1, instance=FRAME
  9, 10, 11, 12, 13, 14, 15, 16, 17, 18, 19, 21, 22, 23, 24, 25
 26, 27, 28, 29, 30, 31
*Nset, nset=CONTACT_ROW_2, instance=FRAME
  90,  91,  92,  93,  94,  95,  96,  97,  98,  99, 100, 102, 103, 104, 105, 106
 107, 108, 109, 110, 111, 112
*Nset, nset=CONTACT_ROW_3, instance=FRAME
 66, 67, 68, 69, 70, 71, 72, 73, 74, 75, 76, 78, 79, 80, 81, 82
 83, 84, 85, 86, 87, 88
*Nset, nset=CONTACT_ROW_4, instance=FRAME
 39, 40, 41, 42, 43, 44, 45, 46, 47, 48, 49, 51, 52, 53, 54, 55
 56, 57, 58, 59, 60, 61
*Nset, nset=CONTACT_ROW_5, instance=FRAME
   1,  36, 119, 120, 121, 122, 123, 124, 125, 126, 127, 129, 130, 131, 132, 133
 134, 135, 136, 137, 138, 139
*End Assembly
** 
** MATERIALS
** 
*Material, name=S235JR
*Density
 7.85e-09,
*Elastic
210000., 0.3
*Material, name=S355JR
*Density
 7.85e-09,
*Elastic
210000., 0.3
** 
** BOUNDARY CONDITIONS
** 
** Name: GroundFixity Type: Symmetry/Antisymmetry/Encastre
*Boundary
BASES, ENCASTRE
** ----------------------------------------------------------------
** 
** STEP: D
** 
*Step, name=D, nlgeom=NO
*Static
1., 1., 1e-05, 1.
** 
** LOADS
** 
** Name: D_Contact_1   Type: Concentrated force
*Cload, op=NEW
CONTACT_ROW_1, 2, 0.
CONTACT_ROW_1, 3, -63.4963
** Name: D_Contact_2   Type: Concentrated force
*Cload, op=NEW
CONTACT_ROW_2, 2, 0.
CONTACT_ROW_2, 3, -126.993
** Name: D_Contact_3   Type: Concentrated force
*Cload, op=NEW
CONTACT_ROW_3, 2, 0.
CONTACT_ROW_3, 3, -126.993
** Name: D_Contact_4   Type: Concentrated force
*Cload, op=NEW
CONTACT_ROW_4, 2, 0.
CONTACT_ROW_4, 3, -126.993
** Name: D_Contact_5   Type: Concentrated force
*Cload, op=NEW
CONTACT_ROW_5, 2, 0.
CONTACT_ROW_5, 3, -63.4963
** Name: D_SteelGravity   Type: Gravity
*Dload, op=NEW
, GRAV, 9810., 0., 0., -1.
** 
** OUTPUT REQUESTS
** 
*Restart, write, frequency=0
** 
** FIELD OUTPUT: Nodal
** 
*Output, field, frequency=99999
*Node Output
RF, RM, U
** 
** FIELD OUTPUT: Section_P2
** 
*Element Output, elset=FRAME.P2, directions=YES
1, 2, 3, 4, 5, 6, 7, 8, 9, 10, 11
S, SF
** 
** FIELD OUTPUT: Section_P3
** 
*Element Output, elset=FRAME.P3, directions=YES
1, 2, 3, 4, 5, 6, 7, 8, 9, 10, 11
S, SF
** 
** FIELD OUTPUT: Section_P4
** 
*Element Output, elset=FRAME.P4, directions=YES
1, 2, 3, 4, 5, 6, 7, 8, 9, 10, 11
S, SF
** 
** FIELD OUTPUT: Section_P5
** 
*Element Output, elset=FRAME.P5, directions=YES
1, 2, 3, 4, 5, 6, 7, 8, 9, 10, 11
S, SF
** 
** FIELD OUTPUT: Section_P6
** 
*Element Output, elset=FRAME.P6, directions=YES
1, 2, 3, 4, 5, 6, 7
S, SF
** 
** HISTORY OUTPUT: Energy
** 
*Output, history
*Energy Output
ALLSE, ALLWK
*End Step
** ----------------------------------------------------------------
** 
** STEP: S
** 
*Step, name=S, nlgeom=NO
*Static
1., 1., 1e-05, 1.
** 
** LOADS
** 
** Name: D_Contact_1   Type: Concentrated force
*Cload, op=NEW
** Name: D_Contact_2   Type: Concentrated force
*Cload, op=NEW
** Name: D_Contact_3   Type: Concentrated force
*Cload, op=NEW
** Name: D_Contact_4   Type: Concentrated force
*Cload, op=NEW
** Name: D_Contact_5   Type: Concentrated force
*Cload, op=NEW
** Name: D_SteelGravity   Type: Gravity
*Dload, op=NEW
** Name: S_Contact_1   Type: Concentrated force
*Cload, op=NEW
CONTACT_ROW_1, 2, 0.
CONTACT_ROW_1, 3, -366.6
** Name: S_Contact_2   Type: Concentrated force
*Cload, op=NEW
CONTACT_ROW_2, 2, 0.
CONTACT_ROW_2, 3, -733.2
** Name: S_Contact_3   Type: Concentrated force
*Cload, op=NEW
CONTACT_ROW_3, 2, 0.
CONTACT_ROW_3, 3, -733.2
** Name: S_Contact_4   Type: Concentrated force
*Cload, op=NEW
CONTACT_ROW_4, 2, 0.
CONTACT_ROW_4, 3, -733.2
** Name: S_Contact_5   Type: Concentrated force
*Cload, op=NEW
CONTACT_ROW_5, 2, 0.
CONTACT_ROW_5, 3, -366.6
** 
** OUTPUT REQUESTS
** 
*Restart, write, frequency=0
** 
** FIELD OUTPUT: Nodal
** 
*Output, field, frequency=99999
*Node Output
RF, RM, U
** 
** FIELD OUTPUT: Section_P2
** 
*Element Output, elset=FRAME.P2, directions=YES
1, 2, 3, 4, 5, 6, 7, 8, 9, 10, 11
S, SF
** 
** FIELD OUTPUT: Section_P3
** 
*Element Output, elset=FRAME.P3, directions=YES
1, 2, 3, 4, 5, 6, 7, 8, 9, 10, 11
S, SF
** 
** FIELD OUTPUT: Section_P4
** 
*Element Output, elset=FRAME.P4, directions=YES
1, 2, 3, 4, 5, 6, 7, 8, 9, 10, 11
S, SF
** 
** FIELD OUTPUT: Section_P5
** 
*Element Output, elset=FRAME.P5, directions=YES
1, 2, 3, 4, 5, 6, 7, 8, 9, 10, 11
S, SF
** 
** FIELD OUTPUT: Section_P6
** 
*Element Output, elset=FRAME.P6, directions=YES
1, 2, 3, 4, 5, 6, 7
S, SF
** 
** HISTORY OUTPUT: Energy
** 
*Output, history
*Energy Output
ALLSE, ALLWK
*End Step
** ----------------------------------------------------------------
** 
** STEP: W
** 
*Step, name=W, nlgeom=NO
*Static
1., 1., 1e-05, 1.
** 
** LOADS
** 
** Name: S_Contact_1   Type: Concentrated force
*Cload, op=NEW
** Name: S_Contact_2   Type: Concentrated force
*Cload, op=NEW
** Name: S_Contact_3   Type: Concentrated force
*Cload, op=NEW
** Name: S_Contact_4   Type: Concentrated force
*Cload, op=NEW
** Name: S_Contact_5   Type: Concentrated force
*Cload, op=NEW
** Name: W_Contact_1   Type: Concentrated force
*Cload, op=NEW
CONTACT_ROW_1, 2, 17.778
CONTACT_ROW_1, 3, -38.1354
** Name: W_Contact_2   Type: Concentrated force
*Cload, op=NEW
CONTACT_ROW_2, 2, 35.556
CONTACT_ROW_2, 3, -76.2707
** Name: W_Contact_3   Type: Concentrated force
*Cload, op=NEW
CONTACT_ROW_3, 2, 35.556
CONTACT_ROW_3, 3, -76.2707
** Name: W_Contact_4   Type: Concentrated force
*Cload, op=NEW
CONTACT_ROW_4, 2, 35.556
CONTACT_ROW_4, 3, -76.2707
** Name: W_Contact_5   Type: Concentrated force
*Cload, op=NEW
CONTACT_ROW_5, 2, 17.778
CONTACT_ROW_5, 3, -38.1354
** 
** OUTPUT REQUESTS
** 
*Restart, write, frequency=0
** 
** FIELD OUTPUT: Nodal
** 
*Output, field, frequency=99999
*Node Output
RF, RM, U
** 
** FIELD OUTPUT: Section_P2
** 
*Element Output, elset=FRAME.P2, directions=YES
1, 2, 3, 4, 5, 6, 7, 8, 9, 10, 11
S, SF
** 
** FIELD OUTPUT: Section_P3
** 
*Element Output, elset=FRAME.P3, directions=YES
1, 2, 3, 4, 5, 6, 7, 8, 9, 10, 11
S, SF
** 
** FIELD OUTPUT: Section_P4
** 
*Element Output, elset=FRAME.P4, directions=YES
1, 2, 3, 4, 5, 6, 7, 8, 9, 10, 11
S, SF
** 
** FIELD OUTPUT: Section_P5
** 
*Element Output, elset=FRAME.P5, directions=YES
1, 2, 3, 4, 5, 6, 7, 8, 9, 10, 11
S, SF
** 
** FIELD OUTPUT: Section_P6
** 
*Element Output, elset=FRAME.P6, directions=YES
1, 2, 3, 4, 5, 6, 7
S, SF
** 
** HISTORY OUTPUT: Energy
** 
*Output, history
*Energy Output
ALLSE, ALLWK
*End Step
** ----------------------------------------------------------------
** 
** STEP: D_07S
** 
*Step, name=D_07S, nlgeom=NO
*Static
1., 1., 1e-05, 1.
** 
** LOADS
** 
** Name: D_07S_Contact_1   Type: Concentrated force
*Cload, op=NEW
CONTACT_ROW_1, 2, 0.
CONTACT_ROW_1, 3, -320.116
** Name: D_07S_Contact_2   Type: Concentrated force
*Cload, op=NEW
CONTACT_ROW_2, 2, 0.
CONTACT_ROW_2, 3, -640.233
** Name: D_07S_Contact_3   Type: Concentrated force
*Cload, op=NEW
CONTACT_ROW_3, 2, 0.
CONTACT_ROW_3, 3, -640.233
** Name: D_07S_Contact_4   Type: Concentrated force
*Cload, op=NEW
CONTACT_ROW_4, 2, 0.
CONTACT_ROW_4, 3, -640.233
** Name: D_07S_Contact_5   Type: Concentrated force
*Cload, op=NEW
CONTACT_ROW_5, 2, 0.
CONTACT_ROW_5, 3, -320.116
** Name: D_07S_SteelGravity   Type: Gravity
*Dload, op=NEW
, GRAV, 9810., 0., 0., -1.
** Name: W_Contact_1   Type: Concentrated force
*Cload, op=NEW
** Name: W_Contact_2   Type: Concentrated force
*Cload, op=NEW
** Name: W_Contact_3   Type: Concentrated force
*Cload, op=NEW
** Name: W_Contact_4   Type: Concentrated force
*Cload, op=NEW
** Name: W_Contact_5   Type: Concentrated force
*Cload, op=NEW
** 
** OUTPUT REQUESTS
** 
*Restart, write, frequency=0
** 
** FIELD OUTPUT: Nodal
** 
*Output, field, frequency=99999
*Node Output
RF, RM, U
** 
** FIELD OUTPUT: Section_P2
** 
*Element Output, elset=FRAME.P2, directions=YES
1, 2, 3, 4, 5, 6, 7, 8, 9, 10, 11
S, SF
** 
** FIELD OUTPUT: Section_P3
** 
*Element Output, elset=FRAME.P3, directions=YES
1, 2, 3, 4, 5, 6, 7, 8, 9, 10, 11
S, SF
** 
** FIELD OUTPUT: Section_P4
** 
*Element Output, elset=FRAME.P4, directions=YES
1, 2, 3, 4, 5, 6, 7, 8, 9, 10, 11
S, SF
** 
** FIELD OUTPUT: Section_P5
** 
*Element Output, elset=FRAME.P5, directions=YES
1, 2, 3, 4, 5, 6, 7, 8, 9, 10, 11
S, SF
** 
** FIELD OUTPUT: Section_P6
** 
*Element Output, elset=FRAME.P6, directions=YES
1, 2, 3, 4, 5, 6, 7
S, SF
** 
** HISTORY OUTPUT: Energy
** 
*Output, history
*Energy Output
ALLSE, ALLWK
*End Step
** ----------------------------------------------------------------
** 
** STEP: D_S
** 
*Step, name=D_S, nlgeom=NO
*Static
1., 1., 1e-05, 1.
** 
** LOADS
** 
** Name: D_07S_Contact_1   Type: Concentrated force
*Cload, op=NEW
** Name: D_07S_Contact_2   Type: Concentrated force
*Cload, op=NEW
** Name: D_07S_Contact_3   Type: Concentrated force
*Cload, op=NEW
** Name: D_07S_Contact_4   Type: Concentrated force
*Cload, op=NEW
** Name: D_07S_Contact_5   Type: Concentrated force
*Cload, op=NEW
** Name: D_07S_SteelGravity   Type: Gravity
*Dload, op=NEW
** Name: D_S_Contact_1   Type: Concentrated force
*Cload, op=NEW
CONTACT_ROW_1, 2, 0.
CONTACT_ROW_1, 3, -430.096
** Name: D_S_Contact_2   Type: Concentrated force
*Cload, op=NEW
CONTACT_ROW_2, 2, 0.
CONTACT_ROW_2, 3, -860.193
** Name: D_S_Contact_3   Type: Concentrated force
*Cload, op=NEW
CONTACT_ROW_3, 2, 0.
CONTACT_ROW_3, 3, -860.193
** Name: D_S_Contact_4   Type: Concentrated force
*Cload, op=NEW
CONTACT_ROW_4, 2, 0.
CONTACT_ROW_4, 3, -860.193
** Name: D_S_Contact_5   Type: Concentrated force
*Cload, op=NEW
CONTACT_ROW_5, 2, 0.
CONTACT_ROW_5, 3, -430.096
** Name: D_S_SteelGravity   Type: Gravity
*Dload, op=NEW
, GRAV, 9810., 0., 0., -1.
** 
** OUTPUT REQUESTS
** 
*Restart, write, frequency=0
** 
** FIELD OUTPUT: Nodal
** 
*Output, field, frequency=99999
*Node Output
RF, RM, U
** 
** FIELD OUTPUT: Section_P2
** 
*Element Output, elset=FRAME.P2, directions=YES
1, 2, 3, 4, 5, 6, 7, 8, 9, 10, 11
S, SF
** 
** FIELD OUTPUT: Section_P3
** 
*Element Output, elset=FRAME.P3, directions=YES
1, 2, 3, 4, 5, 6, 7, 8, 9, 10, 11
S, SF
** 
** FIELD OUTPUT: Section_P4
** 
*Element Output, elset=FRAME.P4, directions=YES
1, 2, 3, 4, 5, 6, 7, 8, 9, 10, 11
S, SF
** 
** FIELD OUTPUT: Section_P5
** 
*Element Output, elset=FRAME.P5, directions=YES
1, 2, 3, 4, 5, 6, 7, 8, 9, 10, 11
S, SF
** 
** FIELD OUTPUT: Section_P6
** 
*Element Output, elset=FRAME.P6, directions=YES
1, 2, 3, 4, 5, 6, 7
S, SF
** 
** HISTORY OUTPUT: Energy
** 
*Output, history
*Energy Output
ALLSE, ALLWK
*End Step
** ----------------------------------------------------------------
** 
** STEP: D_S_W
** 
*Step, name=D_S_W, nlgeom=NO
*Static
1., 1., 1e-05, 1.
** 
** LOADS
** 
** Name: D_S_Contact_1   Type: Concentrated force
*Cload, op=NEW
** Name: D_S_Contact_2   Type: Concentrated force
*Cload, op=NEW
** Name: D_S_Contact_3   Type: Concentrated force
*Cload, op=NEW
** Name: D_S_Contact_4   Type: Concentrated force
*Cload, op=NEW
** Name: D_S_Contact_5   Type: Concentrated force
*Cload, op=NEW
** Name: D_S_SteelGravity   Type: Gravity
*Dload, op=NEW
** Name: D_S_W_Contact_1   Type: Concentrated force
*Cload, op=NEW
CONTACT_ROW_1, 2, 17.778
CONTACT_ROW_1, 3, -468.232
** Name: D_S_W_Contact_2   Type: Concentrated force
*Cload, op=NEW
CONTACT_ROW_2, 2, 35.556
CONTACT_ROW_2, 3, -936.463
** Name: D_S_W_Contact_3   Type: Concentrated force
*Cload, op=NEW
CONTACT_ROW_3, 2, 35.556
CONTACT_ROW_3, 3, -936.463
** Name: D_S_W_Contact_4   Type: Concentrated force
*Cload, op=NEW
CONTACT_ROW_4, 2, 35.556
CONTACT_ROW_4, 3, -936.463
** Name: D_S_W_Contact_5   Type: Concentrated force
*Cload, op=NEW
CONTACT_ROW_5, 2, 17.778
CONTACT_ROW_5, 3, -468.232
** Name: D_S_W_SteelGravity   Type: Gravity
*Dload, op=NEW
, GRAV, 9810., 0., 0., -1.
** 
** OUTPUT REQUESTS
** 
*Restart, write, frequency=0
** 
** FIELD OUTPUT: Nodal
** 
*Output, field, frequency=99999
*Node Output
RF, RM, U
** 
** FIELD OUTPUT: Section_P2
** 
*Element Output, elset=FRAME.P2, directions=YES
1, 2, 3, 4, 5, 6, 7, 8, 9, 10, 11
S, SF
** 
** FIELD OUTPUT: Section_P3
** 
*Element Output, elset=FRAME.P3, directions=YES
1, 2, 3, 4, 5, 6, 7, 8, 9, 10, 11
S, SF
** 
** FIELD OUTPUT: Section_P4
** 
*Element Output, elset=FRAME.P4, directions=YES
1, 2, 3, 4, 5, 6, 7, 8, 9, 10, 11
S, SF
** 
** FIELD OUTPUT: Section_P5
** 
*Element Output, elset=FRAME.P5, directions=YES
1, 2, 3, 4, 5, 6, 7, 8, 9, 10, 11
S, SF
** 
** FIELD OUTPUT: Section_P6
** 
*Element Output, elset=FRAME.P6, directions=YES
1, 2, 3, 4, 5, 6, 7
S, SF
** 
** HISTORY OUTPUT: Energy
** 
*Output, history
*Energy Output
ALLSE, ALLWK
*End Step
** ----------------------------------------------------------------
** 
** STEP: D_S_mW
** 
*Step, name=D_S_mW, nlgeom=NO
*Static
1., 1., 1e-05, 1.
** 
** LOADS
** 
** Name: D_S_W_Contact_1   Type: Concentrated force
*Cload, op=NEW
** Name: D_S_W_Contact_2   Type: Concentrated force
*Cload, op=NEW
** Name: D_S_W_Contact_3   Type: Concentrated force
*Cload, op=NEW
** Name: D_S_W_Contact_4   Type: Concentrated force
*Cload, op=NEW
** Name: D_S_W_Contact_5   Type: Concentrated force
*Cload, op=NEW
** Name: D_S_W_SteelGravity   Type: Gravity
*Dload, op=NEW
** Name: D_S_mW_Contact_1   Type: Concentrated force
*Cload, op=NEW
CONTACT_ROW_1, 2, -17.778
CONTACT_ROW_1, 3, -391.961
** Name: D_S_mW_Contact_2   Type: Concentrated force
*Cload, op=NEW
CONTACT_ROW_2, 2, -35.556
CONTACT_ROW_2, 3, -783.922
** Name: D_S_mW_Contact_3   Type: Concentrated force
*Cload, op=NEW
CONTACT_ROW_3, 2, -35.556
CONTACT_ROW_3, 3, -783.922
** Name: D_S_mW_Contact_4   Type: Concentrated force
*Cload, op=NEW
CONTACT_ROW_4, 2, -35.556
CONTACT_ROW_4, 3, -783.922
** Name: D_S_mW_Contact_5   Type: Concentrated force
*Cload, op=NEW
CONTACT_ROW_5, 2, -17.778
CONTACT_ROW_5, 3, -391.961
** Name: D_S_mW_SteelGravity   Type: Gravity
*Dload, op=NEW
, GRAV, 9810., 0., 0., -1.
** 
** OUTPUT REQUESTS
** 
*Restart, write, frequency=0
** 
** FIELD OUTPUT: Nodal
** 
*Output, field, frequency=99999
*Node Output
RF, RM, U
** 
** FIELD OUTPUT: Section_P2
** 
*Element Output, elset=FRAME.P2, directions=YES
1, 2, 3, 4, 5, 6, 7, 8, 9, 10, 11
S, SF
** 
** FIELD OUTPUT: Section_P3
** 
*Element Output, elset=FRAME.P3, directions=YES
1, 2, 3, 4, 5, 6, 7, 8, 9, 10, 11
S, SF
** 
** FIELD OUTPUT: Section_P4
** 
*Element Output, elset=FRAME.P4, directions=YES
1, 2, 3, 4, 5, 6, 7, 8, 9, 10, 11
S, SF
** 
** FIELD OUTPUT: Section_P5
** 
*Element Output, elset=FRAME.P5, directions=YES
1, 2, 3, 4, 5, 6, 7, 8, 9, 10, 11
S, SF
** 
** FIELD OUTPUT: Section_P6
** 
*Element Output, elset=FRAME.P6, directions=YES
1, 2, 3, 4, 5, 6, 7
S, SF
** 
** HISTORY OUTPUT: Energy
** 
*Output, history
*Energy Output
ALLSE, ALLWK
*End Step
** ----------------------------------------------------------------
** 
** STEP: C09D_W
** 
*Step, name=C09D_W, nlgeom=NO
*Static
1., 1., 1e-05, 1.
** 
** LOADS
** 
** Name: C09D_W_Contact_1   Type: Concentrated force
*Cload, op=NEW
CONTACT_ROW_1, 2, 17.778
CONTACT_ROW_1, 3, -95.282
** Name: C09D_W_Contact_2   Type: Concentrated force
*Cload, op=NEW
CONTACT_ROW_2, 2, 35.556
CONTACT_ROW_2, 3, -190.564
** Name: C09D_W_Contact_3   Type: Concentrated force
*Cload, op=NEW
CONTACT_ROW_3, 2, 35.556
CONTACT_ROW_3, 3, -190.564
** Name: C09D_W_Contact_4   Type: Concentrated force
*Cload, op=NEW
CONTACT_ROW_4, 2, 35.556
CONTACT_ROW_4, 3, -190.564
** Name: C09D_W_Contact_5   Type: Concentrated force
*Cload, op=NEW
CONTACT_ROW_5, 2, 17.778
CONTACT_ROW_5, 3, -95.282
** Name: C09D_W_SteelGravity   Type: Gravity
*Dload, op=NEW
, GRAV, 8829., 0., 0., -1.
** Name: D_S_mW_Contact_1   Type: Concentrated force
*Cload, op=NEW
** Name: D_S_mW_Contact_2   Type: Concentrated force
*Cload, op=NEW
** Name: D_S_mW_Contact_3   Type: Concentrated force
*Cload, op=NEW
** Name: D_S_mW_Contact_4   Type: Concentrated force
*Cload, op=NEW
** Name: D_S_mW_Contact_5   Type: Concentrated force
*Cload, op=NEW
** Name: D_S_mW_SteelGravity   Type: Gravity
*Dload, op=NEW
** 
** OUTPUT REQUESTS
** 
*Restart, write, frequency=0
** 
** FIELD OUTPUT: Nodal
** 
*Output, field, frequency=99999
*Node Output
RF, RM, U
** 
** FIELD OUTPUT: Section_P2
** 
*Element Output, elset=FRAME.P2, directions=YES
1, 2, 3, 4, 5, 6, 7, 8, 9, 10, 11
S, SF
** 
** FIELD OUTPUT: Section_P3
** 
*Element Output, elset=FRAME.P3, directions=YES
1, 2, 3, 4, 5, 6, 7, 8, 9, 10, 11
S, SF
** 
** FIELD OUTPUT: Section_P4
** 
*Element Output, elset=FRAME.P4, directions=YES
1, 2, 3, 4, 5, 6, 7, 8, 9, 10, 11
S, SF
** 
** FIELD OUTPUT: Section_P5
** 
*Element Output, elset=FRAME.P5, directions=YES
1, 2, 3, 4, 5, 6, 7, 8, 9, 10, 11
S, SF
** 
** FIELD OUTPUT: Section_P6
** 
*Element Output, elset=FRAME.P6, directions=YES
1, 2, 3, 4, 5, 6, 7
S, SF
** 
** HISTORY OUTPUT: Energy
** 
*Output, history
*Energy Output
ALLSE, ALLWK
*End Step
** ----------------------------------------------------------------
** 
** STEP: C09D_mW
** 
*Step, name=C09D_mW, nlgeom=NO
*Static
1., 1., 1e-05, 1.
** 
** LOADS
** 
** Name: C09D_W_Contact_1   Type: Concentrated force
*Cload, op=NEW
** Name: C09D_W_Contact_2   Type: Concentrated force
*Cload, op=NEW
** Name: C09D_W_Contact_3   Type: Concentrated force
*Cload, op=NEW
** Name: C09D_W_Contact_4   Type: Concentrated force
*Cload, op=NEW
** Name: C09D_W_Contact_5   Type: Concentrated force
*Cload, op=NEW
** Name: C09D_W_SteelGravity   Type: Gravity
*Dload, op=NEW
** Name: C09D_mW_Contact_1   Type: Concentrated force
*Cload, op=NEW
CONTACT_ROW_1, 2, -17.778
CONTACT_ROW_1, 3, -19.0113
** Name: C09D_mW_Contact_2   Type: Concentrated force
*Cload, op=NEW
CONTACT_ROW_2, 2, -35.556
CONTACT_ROW_2, 3, -38.0225
** Name: C09D_mW_Contact_3   Type: Concentrated force
*Cload, op=NEW
CONTACT_ROW_3, 2, -35.556
CONTACT_ROW_3, 3, -38.0225
** Name: C09D_mW_Contact_4   Type: Concentrated force
*Cload, op=NEW
CONTACT_ROW_4, 2, -35.556
CONTACT_ROW_4, 3, -38.0225
** Name: C09D_mW_Contact_5   Type: Concentrated force
*Cload, op=NEW
CONTACT_ROW_5, 2, -17.778
CONTACT_ROW_5, 3, -19.0113
** Name: C09D_mW_SteelGravity   Type: Gravity
*Dload, op=NEW
, GRAV, 8829., 0., 0., -1.
** 
** OUTPUT REQUESTS
** 
*Restart, write, frequency=0
** 
** FIELD OUTPUT: Nodal
** 
*Output, field, frequency=99999
*Node Output
RF, RM, U
** 
** FIELD OUTPUT: Section_P2
** 
*Element Output, elset=FRAME.P2, directions=YES
1, 2, 3, 4, 5, 6, 7, 8, 9, 10, 11
S, SF
** 
** FIELD OUTPUT: Section_P3
** 
*Element Output, elset=FRAME.P3, directions=YES
1, 2, 3, 4, 5, 6, 7, 8, 9, 10, 11
S, SF
** 
** FIELD OUTPUT: Section_P4
** 
*Element Output, elset=FRAME.P4, directions=YES
1, 2, 3, 4, 5, 6, 7, 8, 9, 10, 11
S, SF
** 
** FIELD OUTPUT: Section_P5
** 
*Element Output, elset=FRAME.P5, directions=YES
1, 2, 3, 4, 5, 6, 7, 8, 9, 10, 11
S, SF
** 
** FIELD OUTPUT: Section_P6
** 
*Element Output, elset=FRAME.P6, directions=YES
1, 2, 3, 4, 5, 6, 7
S, SF
** 
** HISTORY OUTPUT: Energy
** 
*Output, history
*Energy Output
ALLSE, ALLWK
*End Step
