*Heading
 Solar support; see assumptions and run metadata; N mm tonne s
** Job name: Solar_017_eaves_all_pinned Model name: SolarSupport
** Generated by: Abaqus/CAE 2024
*Preprint, echo=NO, model=NO, history=NO, contact=NO
**
** PARTS
**
*Part, name=SteelFrame
*Node
      1,   17735.5449,   2888.94629,   2398.77441
      2,       18148.,   2888.94629,   2398.77441
      3,       18148.,   2134.36011,        2047.
      4,       18148.,           0.,        1052.
      5,       18148.,  -754.586365,   700.225464
      6,   17735.5449,  -754.586365,   700.225464
      7,   16910.6367,  -754.586365,   700.225464
      8,   16085.7275,  -754.586365,   700.225464
      9,   15260.8184,  -754.586365,   700.225464
     10,   14435.9092,  -754.586365,   700.225464
     11,       13611.,  -754.586365,   700.225464
     12,   12786.0908,  -754.586365,   700.225464
     13,   11961.1816,  -754.586365,   700.225464
     14,   11136.2725,  -754.586365,   700.225464
     15,   10311.3633,  -754.586365,   700.225464
     16,    9486.4541,  -754.586365,   700.225464
     17,        9074.,  -754.586365,   700.225464
     18,    8661.5459,  -754.586365,   700.225464
     19,   7836.63623,  -754.586365,   700.225464
     20,   7011.72705,  -754.586365,   700.225464
     21,   6186.81836,  -754.586365,   700.225464
     22,   5361.90918,  -754.586365,   700.225464
     23,        4537.,  -754.586365,   700.225464
     24,   3712.09082,  -754.586365,   700.225464
     25,   2887.18188,  -754.586365,   700.225464
     26,   2062.27271,  -754.586365,   700.225464
     27,   1237.36365,  -754.586365,   700.225464
     28,   412.454559,  -754.586365,   700.225464
     29,           0.,  -754.586365,   700.225464
     30,           0.,           0.,        1052.
     31,           0.,           0.,         927.
     32,           0.,           0.,           0.
     33,   16910.6367,   2888.94629,   2398.77441
     34,       18148.,   2134.36011,   416.769989
     35,       18148.,   2134.36011,           0.
     36,       18148.,           0.,         927.
     37,       18148.,           0.,           0.
     38,       13611.,           0.,        1052.
     39,        9074.,           0.,        1052.
     40,        4537.,           0.,        1052.
     41,           0.,   2134.36011,        2047.
     42,           0.,   2134.36011,   416.769989
     43,   16085.7275,   2888.94629,   2398.77441
     44,   15260.8184,   2888.94629,   2398.77441
     45,   14435.9092,   2888.94629,   2398.77441
     46,       13611.,   2888.94629,   2398.77441
     47,   12786.0908,   2888.94629,   2398.77441
     48,   11961.1816,   2888.94629,   2398.77441
     49,   11136.2725,   2888.94629,   2398.77441
     50,   10311.3633,   2888.94629,   2398.77441
     51,    9486.4541,   2888.94629,   2398.77441
     52,        9074.,   2888.94629,   2398.77441
     53,    8661.5459,   2888.94629,   2398.77441
     54,   7836.63623,   2888.94629,   2398.77441
     55,   7011.72705,   2888.94629,   2398.77441
     56,   6186.81836,   2888.94629,   2398.77441
     57,   5361.90918,   2888.94629,   2398.77441
     58,        4537.,   2888.94629,   2398.77441
     59,   3712.09082,   2888.94629,   2398.77441
     60,   2887.18188,   2888.94629,   2398.77441
     61,   2062.27271,   2888.94629,   2398.77441
     62,   1237.36365,   2888.94629,   2398.77441
     63,   412.454559,   2888.94629,   2398.77441
     64,           0.,   2888.94629,   2398.77441
     65,       13611.,           0.,         927.
     66,       13611.,           0.,           0.
     67,        9074.,           0.,         927.
     68,        9074.,           0.,           0.
     69,        4537.,           0.,         927.
     70,        4537.,           0.,           0.
     71,           0.,   2134.36011,           0.
     72,       13611.,   2134.36011,        2047.
     73,        9074.,   2134.36011,        2047.
     74,        4537.,   2134.36011,        2047.
     75,       13611.,   2134.36011,   416.769989
     76,        9074.,   2134.36011,   416.769989
     77,        4537.,   2134.36011,   416.769989
     78,       13611.,   2134.36011,           0.
     79,        9074.,   2134.36011,           0.
     80,        4537.,   2134.36011,           0.
     81,   17787.1016,   2888.94629,   2398.77441
     82,   17838.6582,   2888.94629,   2398.77441
     83,   17890.2168,   2888.94629,   2398.77441
     84,   17941.7734,   2888.94629,   2398.77441
     85,   17993.3301,   2888.94629,   2398.77441
     86,   18044.8867,   2888.94629,   2398.77441
     87,   18096.4434,   2888.94629,   2398.77441
     88,       18148.,   2178.74731,   2067.69263
     89,       18148.,   2223.13477,   2088.38525
     90,       18148.,   2267.52222,   2109.07788
     91,       18148.,   2311.90967,   2129.77051
     92,       18148.,   2356.29712,   2150.46313
     93,       18148.,   2400.68457,   2171.15576
     94,       18148.,   2445.07202,   2191.84839
     95,       18148.,   2489.45947,   2212.54102
     96,       18148.,   2533.84692,   2233.23364
     97,       18148.,   2578.23438,   2253.92627
     98,       18148.,   2622.62183,    2274.6189
     99,       18148.,   2667.00928,   2295.31152
    100,       18148.,   2711.39673,   2316.00415
    101,       18148.,   2755.78418,   2336.69678
    102,       18148.,   2800.17163,   2357.38916
    103,       18148.,   2844.55884,   2378.08179
    104,       18148.,   45.4119148,   1073.17017
    105,       18148.,   90.8238297,   1094.34045
    106,       18148.,   136.235748,   1115.51062
    107,       18148.,   181.647659,   1136.68091
    108,       18148.,    227.05957,   1157.85107
    109,       18148.,   272.471497,   1179.02124
    110,       18148.,   317.883392,   1200.19153
    111,       18148.,   363.295319,   1221.36169
    112,       18148.,   408.707245,   1242.53186
    113,       18148.,   454.119141,   1263.70215
    114,       18148.,   499.531067,   1284.87231
    115,       18148.,   544.942993,    1306.0426
    116,       18148.,   590.354919,   1327.21277
    117,       18148.,   635.766785,   1348.38293
    118,       18148.,   681.178711,   1369.55322
    119,       18148.,   726.590637,   1390.72339
    120,       18148.,   772.002563,   1411.89368
    121,       18148.,    817.41449,   1433.06384
    122,       18148.,   862.826355,   1454.23401
    123,       18148.,   908.238281,    1475.4043
    124,       18148.,   953.650208,   1496.57446
    125,       18148.,   999.062134,   1517.74463
    126,       18148.,     1044.474,   1538.91492
    127,       18148.,   1089.88599,   1560.08508
    128,       18148.,   1135.29785,   1581.25537
    129,       18148.,   1180.70984,   1602.42554
    130,       18148.,    1226.1217,    1623.5957
    131,       18148.,   1271.53357,   1644.76599
    132,       18148.,   1316.94556,   1665.93616
    133,       18148.,   1362.35742,   1687.10632
    134,       18148.,   1407.76941,   1708.27661
    135,       18148.,   1453.18127,   1729.44678
    136,       18148.,   1498.59314,   1750.61707
    137,       18148.,   1544.00513,   1771.78723
    138,       18148.,   1589.41699,    1792.9574
    139,       18148.,   1634.82898,   1814.12769
    140,       18148.,   1680.24084,   1835.29785
    141,       18148.,   1725.65271,   1856.46814
    142,       18148.,    1771.0647,   1877.63831
    143,       18148.,   1816.47656,   1898.80847
    144,       18148.,   1861.88855,   1919.97876
    145,       18148.,   1907.30042,   1941.14893
    146,       18148.,   1952.71228,   1962.31909
    147,       18148.,   1998.12427,   1983.48938
    148,       18148.,   2043.53613,   2004.65955
    149,       18148.,     2088.948,   2025.82983
    150,       18148.,  -710.198975,   720.918091
    151,       18148.,  -665.811523,   741.610718
    152,       18148.,  -621.424072,   762.303345
    153,       18148.,  -577.036682,   782.995972
    154,       18148.,  -532.649231,   803.688599
    155,       18148.,   -488.26178,   824.381165
    156,       18148.,  -443.874359,   845.073792
    157,       18148.,  -399.486908,   865.766418
    158,       18148.,  -355.099487,   886.459045
    159,       18148.,  -310.712036,   907.151672
    160,       18148.,  -266.324615,   927.844299
    161,       18148.,   -221.93718,   948.536926
    162,       18148.,  -177.549744,   969.229553
    163,       18148.,  -133.162308,   989.922119
    164,       18148.,  -88.7748718,   1010.61475
    165,       18148.,  -44.3874359,   1031.30737
    166,   17787.1016,  -754.586365,   700.225464
    167,   17838.6582,  -754.586365,   700.225464
    168,   17890.2168,  -754.586365,   700.225464
    169,   17941.7734,  -754.586365,   700.225464
    170,   17993.3301,  -754.586365,   700.225464
    171,   18044.8867,  -754.586365,   700.225464
    172,   18096.4434,  -754.586365,   700.225464
    173,   16962.1934,  -754.586365,   700.225464
    174,     17013.75,  -754.586365,   700.225464
    175,   17065.3066,  -754.586365,   700.225464
    176,   17116.8633,  -754.586365,   700.225464
    177,   17168.4199,  -754.586365,   700.225464
    178,   17219.9766,  -754.586365,   700.225464
    179,   17271.5332,  -754.586365,   700.225464
    180,   17323.0918,  -754.586365,   700.225464
    181,   17374.6484,  -754.586365,   700.225464
    182,   17426.2051,  -754.586365,   700.225464
    183,   17477.7617,  -754.586365,   700.225464
    184,   17529.3184,  -754.586365,   700.225464
    185,    17580.875,  -754.586365,   700.225464
    186,   17632.4316,  -754.586365,   700.225464
    187,   17683.9883,  -754.586365,   700.225464
    188,   16137.2842,  -754.586365,   700.225464
    189,   16188.8408,  -754.586365,   700.225464
    190,   16240.3975,  -754.586365,   700.225464
    191,   16291.9541,  -754.586365,   700.225464
    192,   16343.5117,  -754.586365,   700.225464
    193,   16395.0684,  -754.586365,   700.225464
    194,    16446.625,  -754.586365,   700.225464
    195,   16498.1816,  -754.586365,   700.225464
    196,   16549.7383,  -754.586365,   700.225464
    197,   16601.2949,  -754.586365,   700.225464
    198,   16652.8516,  -754.586365,   700.225464
    199,   16704.4082,  -754.586365,   700.225464
    200,   16755.9668,  -754.586365,   700.225464
    201,   16807.5234,  -754.586365,   700.225464
    202,   16859.0801,  -754.586365,   700.225464
    203,    15312.375,  -754.586365,   700.225464
    204,   15363.9316,  -754.586365,   700.225464
    205,   15415.4883,  -754.586365,   700.225464
    206,   15467.0459,  -754.586365,   700.225464
    207,   15518.6025,  -754.586365,   700.225464
    208,   15570.1592,  -754.586365,   700.225464
    209,   15621.7158,  -754.586365,   700.225464
    210,   15673.2725,  -754.586365,   700.225464
    211,   15724.8291,  -754.586365,   700.225464
    212,   15776.3867,  -754.586365,   700.225464
    213,   15827.9434,  -754.586365,   700.225464
    214,      15879.5,  -754.586365,   700.225464
    215,   15931.0566,  -754.586365,   700.225464
    216,   15982.6133,  -754.586365,   700.225464
    217,   16034.1709,  -754.586365,   700.225464
    218,   14487.4658,  -754.586365,   700.225464
    219,   14539.0225,  -754.586365,   700.225464
    220,   14590.5791,  -754.586365,   700.225464
    221,   14642.1367,  -754.586365,   700.225464
    222,   14693.6934,  -754.586365,   700.225464
    223,     14745.25,  -754.586365,   700.225464
    224,   14796.8066,  -754.586365,   700.225464
    225,   14848.3633,  -754.586365,   700.225464
    226,   14899.9209,  -754.586365,   700.225464
    227,   14951.4775,  -754.586365,   700.225464
    228,   15003.0342,  -754.586365,   700.225464
    229,   15054.5908,  -754.586365,   700.225464
    230,   15106.1475,  -754.586365,   700.225464
    231,   15157.7041,  -754.586365,   700.225464
    232,   15209.2617,  -754.586365,   700.225464
    233,   13662.5566,  -754.586365,   700.225464
    234,   13714.1133,  -754.586365,   700.225464
    235,   13765.6709,  -754.586365,   700.225464
    236,   13817.2275,  -754.586365,   700.225464
    237,   13868.7842,  -754.586365,   700.225464
    238,   13920.3408,  -754.586365,   700.225464
    239,   13971.8975,  -754.586365,   700.225464
    240,   14023.4541,  -754.586365,   700.225464
    241,   14075.0117,  -754.586365,   700.225464
    242,   14126.5684,  -754.586365,   700.225464
    243,    14178.125,  -754.586365,   700.225464
    244,   14229.6816,  -754.586365,   700.225464
    245,   14281.2383,  -754.586365,   700.225464
    246,   14332.7959,  -754.586365,   700.225464
    247,   14384.3525,  -754.586365,   700.225464
    248,   12837.6475,  -754.586365,   700.225464
    249,   12889.2041,  -754.586365,   700.225464
    250,   12940.7617,  -754.586365,   700.225464
    251,   12992.3184,  -754.586365,   700.225464
    252,    13043.875,  -754.586365,   700.225464
    253,   13095.4316,  -754.586365,   700.225464
    254,   13146.9883,  -754.586365,   700.225464
    255,   13198.5459,  -754.586365,   700.225464
    256,   13250.1025,  -754.586365,   700.225464
    257,   13301.6592,  -754.586365,   700.225464
    258,   13353.2158,  -754.586365,   700.225464
    259,   13404.7725,  -754.586365,   700.225464
    260,   13456.3291,  -754.586365,   700.225464
    261,   13507.8867,  -754.586365,   700.225464
    262,   13559.4434,  -754.586365,   700.225464
    263,   12012.7383,  -754.586365,   700.225464
    264,   12064.2959,  -754.586365,   700.225464
    265,   12115.8525,  -754.586365,   700.225464
    266,   12167.4092,  -754.586365,   700.225464
    267,   12218.9658,  -754.586365,   700.225464
    268,   12270.5225,  -754.586365,   700.225464
    269,   12322.0791,  -754.586365,   700.225464
    270,   12373.6367,  -754.586365,   700.225464
    271,   12425.1934,  -754.586365,   700.225464
    272,     12476.75,  -754.586365,   700.225464
    273,   12528.3066,  -754.586365,   700.225464
    274,   12579.8633,  -754.586365,   700.225464
    275,   12631.4209,  -754.586365,   700.225464
    276,   12682.9775,  -754.586365,   700.225464
    277,   12734.5342,  -754.586365,   700.225464
    278,   11187.8291,  -754.586365,   700.225464
    279,   11239.3867,  -754.586365,   700.225464
    280,   11290.9434,  -754.586365,   700.225464
    281,      11342.5,  -754.586365,   700.225464
    282,   11394.0566,  -754.586365,   700.225464
    283,   11445.6133,  -754.586365,   700.225464
    284,   11497.1709,  -754.586365,   700.225464
    285,   11548.7275,  -754.586365,   700.225464
    286,   11600.2842,  -754.586365,   700.225464
    287,   11651.8408,  -754.586365,   700.225464
    288,   11703.3975,  -754.586365,   700.225464
    289,   11754.9541,  -754.586365,   700.225464
    290,   11806.5117,  -754.586365,   700.225464
    291,   11858.0684,  -754.586365,   700.225464
    292,    11909.625,  -754.586365,   700.225464
    293,   10362.9209,  -754.586365,   700.225464
    294,   10414.4775,  -754.586365,   700.225464
    295,   10466.0342,  -754.586365,   700.225464
    296,   10517.5908,  -754.586365,   700.225464
    297,   10569.1475,  -754.586365,   700.225464
    298,   10620.7041,  -754.586365,   700.225464
    299,   10672.2617,  -754.586365,   700.225464
    300,   10723.8184,  -754.586365,   700.225464
    301,    10775.375,  -754.586365,   700.225464
    302,   10826.9316,  -754.586365,   700.225464
    303,   10878.4883,  -754.586365,   700.225464
    304,   10930.0459,  -754.586365,   700.225464
    305,   10981.6025,  -754.586365,   700.225464
    306,   11033.1592,  -754.586365,   700.225464
    307,   11084.7158,  -754.586365,   700.225464
    308,   9538.01172,  -754.586365,   700.225464
    309,   9589.56836,  -754.586365,   700.225464
    310,     9641.125,  -754.586365,   700.225464
    311,   9692.68164,  -754.586365,   700.225464
    312,   9744.23828,  -754.586365,   700.225464
    313,    9795.7959,  -754.586365,   700.225464
    314,   9847.35254,  -754.586365,   700.225464
    315,   9898.90918,  -754.586365,   700.225464
    316,   9950.46582,  -754.586365,   700.225464
    317,   10002.0225,  -754.586365,   700.225464
    318,   10053.5791,  -754.586365,   700.225464
    319,   10105.1367,  -754.586365,   700.225464
    320,   10156.6934,  -754.586365,   700.225464
    321,     10208.25,  -754.586365,   700.225464
    322,   10259.8066,  -754.586365,   700.225464
    323,   9125.55664,  -754.586365,   700.225464
    324,   9177.11328,  -754.586365,   700.225464
    325,    9228.6709,  -754.586365,   700.225464
    326,   9280.22754,  -754.586365,   700.225464
    327,   9331.78418,  -754.586365,   700.225464
    328,   9383.34082,  -754.586365,   700.225464
    329,   9434.89746,  -754.586365,   700.225464
    330,   8713.10254,  -754.586365,   700.225464
    331,   8764.65918,  -754.586365,   700.225464
    332,   8816.21582,  -754.586365,   700.225464
    333,   8867.77246,  -754.586365,   700.225464
    334,    8919.3291,  -754.586365,   700.225464
    335,   8970.88672,  -754.586365,   700.225464
    336,   9022.44336,  -754.586365,   700.225464
    337,   7888.19336,  -754.586365,   700.225464
    338,      7939.75,  -754.586365,   700.225464
    339,   7991.30664,  -754.586365,   700.225464
    340,   8042.86377,  -754.586365,   700.225464
    341,   8094.42041,  -754.586365,   700.225464
    342,   8145.97705,  -754.586365,   700.225464
    343,   8197.53418,  -754.586365,   700.225464
    344,   8249.09082,  -754.586365,   700.225464
    345,   8300.64746,  -754.586365,   700.225464
    346,    8352.2041,  -754.586365,   700.225464
    347,   8403.76172,  -754.586365,   700.225464
    348,   8455.31836,  -754.586365,   700.225464
    349,     8506.875,  -754.586365,   700.225464
    350,   8558.43164,  -754.586365,   700.225464
    351,   8609.98828,  -754.586365,   700.225464
    352,   7063.28418,  -754.586365,   700.225464
    353,   7114.84082,  -754.586365,   700.225464
    354,   7166.39795,  -754.586365,   700.225464
    355,   7217.95459,  -754.586365,   700.225464
    356,   7269.51123,  -754.586365,   700.225464
    357,   7321.06836,  -754.586365,   700.225464
    358,     7372.625,  -754.586365,   700.225464
    359,   7424.18164,  -754.586365,   700.225464
    360,   7475.73877,  -754.586365,   700.225464
    361,   7527.29541,  -754.586365,   700.225464
    362,   7578.85205,  -754.586365,   700.225464
    363,   7630.40918,  -754.586365,   700.225464
    364,   7681.96582,  -754.586365,   700.225464
    365,   7733.52295,  -754.586365,   700.225464
    366,   7785.07959,  -754.586365,   700.225464
    367,     6238.375,  -754.586365,   700.225464
    368,   6289.93164,  -754.586365,   700.225464
    369,   6341.48877,  -754.586365,   700.225464
    370,   6393.04541,  -754.586365,   700.225464
    371,   6444.60205,  -754.586365,   700.225464
    372,   6496.15918,  -754.586365,   700.225464
    373,   6547.71582,  -754.586365,   700.225464
    374,   6599.27295,  -754.586365,   700.225464
    375,   6650.82959,  -754.586365,   700.225464
    376,   6702.38623,  -754.586365,   700.225464
    377,   6753.94336,  -754.586365,   700.225464
    378,       6805.5,  -754.586365,   700.225464
    379,   6857.05664,  -754.586365,   700.225464
    380,   6908.61377,  -754.586365,   700.225464
    381,   6960.17041,  -754.586365,   700.225464
    382,   5413.46582,  -754.586365,   700.225464
    383,   5465.02295,  -754.586365,   700.225464
    384,   5516.57959,  -754.586365,   700.225464
    385,   5568.13623,  -754.586365,   700.225464
    386,   5619.69336,  -754.586365,   700.225464
    387,      5671.25,  -754.586365,   700.225464
    388,   5722.80664,  -754.586365,   700.225464
    389,   5774.36377,  -754.586365,   700.225464
    390,   5825.92041,  -754.586365,   700.225464
    391,   5877.47705,  -754.586365,   700.225464
    392,   5929.03418,  -754.586365,   700.225464
    393,   5980.59082,  -754.586365,   700.225464
    394,   6032.14795,  -754.586365,   700.225464
    395,   6083.70459,  -754.586365,   700.225464
    396,   6135.26123,  -754.586365,   700.225464
    397,   4588.55664,  -754.586365,   700.225464
    398,   4640.11377,  -754.586365,   700.225464
    399,   4691.67041,  -754.586365,   700.225464
    400,   4743.22705,  -754.586365,   700.225464
    401,   4794.78418,  -754.586365,   700.225464
    402,   4846.34082,  -754.586365,   700.225464
    403,   4897.89795,  -754.586365,   700.225464
    404,   4949.45459,  -754.586365,   700.225464
    405,   5001.01123,  -754.586365,   700.225464
    406,   5052.56836,  -754.586365,   700.225464
    407,     5104.125,  -754.586365,   700.225464
    408,   5155.68164,  -754.586365,   700.225464
    409,   5207.23877,  -754.586365,   700.225464
    410,   5258.79541,  -754.586365,   700.225464
    411,   5310.35205,  -754.586365,   700.225464
    412,   3763.64771,  -754.586365,   700.225464
    413,   3815.20459,  -754.586365,   700.225464
    414,   3866.76147,  -754.586365,   700.225464
    415,   3918.31812,  -754.586365,   700.225464
    416,     3969.875,  -754.586365,   700.225464
    417,   4021.43188,  -754.586365,   700.225464
    418,   4072.98853,  -754.586365,   700.225464
    419,   4124.54541,  -754.586365,   700.225464
    420,   4176.10205,  -754.586365,   700.225464
    421,   4227.65918,  -754.586365,   700.225464
    422,   4279.21582,  -754.586365,   700.225464
    423,   4330.77295,  -754.586365,   700.225464
    424,   4382.32959,  -754.586365,   700.225464
    425,   4433.88623,  -754.586365,   700.225464
    426,   4485.44336,  -754.586365,   700.225464
    427,   2938.73853,  -754.586365,   700.225464
    428,   2990.29541,  -754.586365,   700.225464
    429,   3041.85229,  -754.586365,   700.225464
    430,   3093.40918,  -754.586365,   700.225464
    431,   3144.96582,  -754.586365,   700.225464
    432,   3196.52271,  -754.586365,   700.225464
    433,   3248.07959,  -754.586365,   700.225464
    434,   3299.63647,  -754.586365,   700.225464
    435,   3351.19312,  -754.586365,   700.225464
    436,      3402.75,  -754.586365,   700.225464
    437,   3454.30688,  -754.586365,   700.225464
    438,   3505.86353,  -754.586365,   700.225464
    439,   3557.42041,  -754.586365,   700.225464
    440,   3608.97729,  -754.586365,   700.225464
    441,   3660.53418,  -754.586365,   700.225464
    442,   2113.82959,  -754.586365,   700.225464
    443,   2165.38647,  -754.586365,   700.225464
    444,   2216.94312,  -754.586365,   700.225464
    445,       2268.5,  -754.586365,   700.225464
    446,   2320.05688,  -754.586365,   700.225464
    447,   2371.61353,  -754.586365,   700.225464
    448,   2423.17041,  -754.586365,   700.225464
    449,   2474.72729,  -754.586365,   700.225464
    450,   2526.28418,  -754.586365,   700.225464
    451,   2577.84082,  -754.586365,   700.225464
    452,   2629.39771,  -754.586365,   700.225464
    453,   2680.95459,  -754.586365,   700.225464
    454,   2732.51147,  -754.586365,   700.225464
    455,   2784.06812,  -754.586365,   700.225464
    456,     2835.625,  -754.586365,   700.225464
    457,   1288.92041,  -754.586365,   700.225464
    458,   1340.47729,  -754.586365,   700.225464
    459,   1392.03406,  -754.586365,   700.225464
    460,   1443.59094,  -754.586365,   700.225464
    461,   1495.14771,  -754.586365,   700.225464
    462,   1546.70459,  -754.586365,   700.225464
    463,   1598.26135,  -754.586365,   700.225464
    464,   1649.81824,  -754.586365,   700.225464
    465,     1701.375,  -754.586365,   700.225464
    466,   1752.93176,  -754.586365,   700.225464
    467,   1804.48865,  -754.586365,   700.225464
    468,   1856.04541,  -754.586365,   700.225464
    469,   1907.60229,  -754.586365,   700.225464
    470,   1959.15906,  -754.586365,   700.225464
    471,   2010.71594,  -754.586365,   700.225464
    472,   464.011353,  -754.586365,   700.225464
    473,   515.568176,  -754.586365,   700.225464
    474,      567.125,  -754.586365,   700.225464
    475,   618.681824,  -754.586365,   700.225464
    476,   670.238647,  -754.586365,   700.225464
    477,   721.795471,  -754.586365,   700.225464
    478,   773.352295,  -754.586365,   700.225464
    479,   824.909119,  -754.586365,   700.225464
    480,   876.465881,  -754.586365,   700.225464
    481,   928.022705,  -754.586365,   700.225464
    482,   979.579529,  -754.586365,   700.225464
    483,   1031.13635,  -754.586365,   700.225464
    484,   1082.69324,  -754.586365,   700.225464
    485,      1134.25,  -754.586365,   700.225464
    486,   1185.80676,  -754.586365,   700.225464
    487,   51.5568199,  -754.586365,   700.225464
    488,    103.11364,  -754.586365,   700.225464
    489,   154.670456,  -754.586365,   700.225464
    490,    206.22728,  -754.586365,   700.225464
    491,   257.784088,  -754.586365,   700.225464
    492,   309.340912,  -754.586365,   700.225464
    493,   360.897736,  -754.586365,   700.225464
    494,           0.,  -710.198975,   720.918091
    495,           0.,  -665.811523,   741.610718
    496,           0.,  -621.424072,   762.303345
    497,           0.,  -577.036682,   782.995972
    498,           0.,  -532.649231,   803.688599
    499,           0.,   -488.26178,   824.381165
    500,           0.,  -443.874359,   845.073792
    501,           0.,  -399.486908,   865.766418
    502,           0.,  -355.099487,   886.459045
    503,           0.,  -310.712036,   907.151672
    504,           0.,  -266.324615,   927.844299
    505,           0.,   -221.93718,   948.536926
    506,           0.,  -177.549744,   969.229553
    507,           0.,  -133.162308,   989.922119
    508,           0.,  -88.7748718,   1010.61475
    509,           0.,  -44.3874359,   1031.30737
    510,           0.,           0.,   968.666687
    511,           0.,           0.,   1010.33331
    512,           0.,           0.,   48.7894745
    513,           0.,           0.,    97.578949
    514,           0.,           0.,   146.368423
    515,           0.,           0.,   195.157898
    516,           0.,           0.,   243.947372
    517,           0.,           0.,   292.736847
    518,           0.,           0.,   341.526306
    519,           0.,           0.,   390.315796
    520,           0.,           0.,   439.105255
    521,           0.,           0.,   487.894745
    522,           0.,           0.,   536.684204
    523,           0.,           0.,   585.473694
    524,           0.,           0.,   634.263184
    525,           0.,           0.,   683.052612
    526,           0.,           0.,   731.842102
    527,           0.,           0.,   780.631592
    528,           0.,           0.,   829.421082
    529,           0.,           0.,    878.21051
    530,   16962.1934,   2888.94629,   2398.77441
    531,     17013.75,   2888.94629,   2398.77441
    532,   17065.3066,   2888.94629,   2398.77441
    533,   17116.8633,   2888.94629,   2398.77441
    534,   17168.4199,   2888.94629,   2398.77441
    535,   17219.9766,   2888.94629,   2398.77441
    536,   17271.5332,   2888.94629,   2398.77441
    537,   17323.0918,   2888.94629,   2398.77441
    538,   17374.6484,   2888.94629,   2398.77441
    539,   17426.2051,   2888.94629,   2398.77441
    540,   17477.7617,   2888.94629,   2398.77441
    541,   17529.3184,   2888.94629,   2398.77441
    542,    17580.875,   2888.94629,   2398.77441
    543,   17632.4316,   2888.94629,   2398.77441
    544,   17683.9883,   2888.94629,   2398.77441
    545,       18148.,   2134.36011,   466.170898
    546,       18148.,   2134.36011,   515.571838
    547,       18148.,   2134.36011,   564.972717
    548,       18148.,   2134.36011,   614.373657
    549,       18148.,   2134.36011,   663.774536
    550,       18148.,   2134.36011,   713.175476
    551,       18148.,   2134.36011,   762.576355
    552,       18148.,   2134.36011,   811.977295
    553,       18148.,   2134.36011,   861.378174
    554,       18148.,   2134.36011,   910.779114
    555,       18148.,   2134.36011,   960.179993
    556,       18148.,   2134.36011,   1009.58093
    557,       18148.,   2134.36011,   1058.98181
    558,       18148.,   2134.36011,   1108.38269
    559,       18148.,   2134.36011,   1157.78369
    560,       18148.,   2134.36011,   1207.18457
    561,       18148.,   2134.36011,   1256.58545
    562,       18148.,   2134.36011,   1305.98633
    563,       18148.,   2134.36011,   1355.38733
    564,       18148.,   2134.36011,   1404.78821
    565,       18148.,   2134.36011,   1454.18909
    566,       18148.,   2134.36011,   1503.58997
    567,       18148.,   2134.36011,   1552.99097
    568,       18148.,   2134.36011,   1602.39185
    569,       18148.,   2134.36011,   1651.79272
    570,       18148.,   2134.36011,    1701.1936
    571,       18148.,   2134.36011,    1750.5946
    572,       18148.,   2134.36011,   1799.99548
    573,       18148.,   2134.36011,   1849.39636
    574,       18148.,   2134.36011,   1898.79724
    575,       18148.,   2134.36011,   1948.19824
    576,       18148.,   2134.36011,   1997.59912
    577,       18148.,   2134.36011,   52.0962486
    578,       18148.,   2134.36011,   104.192497
    579,       18148.,   2134.36011,   156.288757
    580,       18148.,   2134.36011,   208.384995
    581,       18148.,   2134.36011,   260.481262
    582,       18148.,   2134.36011,   312.577515
    583,       18148.,   2134.36011,   364.673737
    584,       18148.,           0.,   968.666687
    585,       18148.,           0.,   1010.33331
    586,       18148.,           0.,   48.7894745
    587,       18148.,           0.,    97.578949
    588,       18148.,           0.,   146.368423
    589,       18148.,           0.,   195.157898
    590,       18148.,           0.,   243.947372
    591,       18148.,           0.,   292.736847
    592,       18148.,           0.,   341.526306
    593,       18148.,           0.,   390.315796
    594,       18148.,           0.,   439.105255
    595,       18148.,           0.,   487.894745
    596,       18148.,           0.,   536.684204
    597,       18148.,           0.,   585.473694
    598,       18148.,           0.,   634.263184
    599,       18148.,           0.,   683.052612
    600,       18148.,           0.,   731.842102
    601,       18148.,           0.,   780.631592
    602,       18148.,           0.,   829.421082
    603,       18148.,           0.,    878.21051
    604,       13611.,  -710.198975,   720.918091
    605,       13611.,  -665.811523,   741.610718
    606,       13611.,  -621.424072,   762.303345
    607,       13611.,  -577.036682,   782.995972
    608,       13611.,  -532.649231,   803.688599
    609,       13611.,   -488.26178,   824.381165
    610,       13611.,  -443.874359,   845.073792
    611,       13611.,  -399.486908,   865.766418
    612,       13611.,  -355.099487,   886.459045
    613,       13611.,  -310.712036,   907.151672
    614,       13611.,  -266.324615,   927.844299
    615,       13611.,   -221.93718,   948.536926
    616,       13611.,  -177.549744,   969.229553
    617,       13611.,  -133.162308,   989.922119
    618,       13611.,  -88.7748718,   1010.61475
    619,       13611.,  -44.3874359,   1031.30737
    620,        9074.,  -710.198975,   720.918091
    621,        9074.,  -665.811523,   741.610718
    622,        9074.,  -621.424072,   762.303345
    623,        9074.,  -577.036682,   782.995972
    624,        9074.,  -532.649231,   803.688599
    625,        9074.,   -488.26178,   824.381165
    626,        9074.,  -443.874359,   845.073792
    627,        9074.,  -399.486908,   865.766418
    628,        9074.,  -355.099487,   886.459045
    629,        9074.,  -310.712036,   907.151672
    630,        9074.,  -266.324615,   927.844299
    631,        9074.,   -221.93718,   948.536926
    632,        9074.,  -177.549744,   969.229553
    633,        9074.,  -133.162308,   989.922119
    634,        9074.,  -88.7748718,   1010.61475
    635,        9074.,  -44.3874359,   1031.30737
    636,        4537.,  -710.198975,   720.918091
    637,        4537.,  -665.811523,   741.610718
    638,        4537.,  -621.424072,   762.303345
    639,        4537.,  -577.036682,   782.995972
    640,        4537.,  -532.649231,   803.688599
    641,        4537.,   -488.26178,   824.381165
    642,        4537.,  -443.874359,   845.073792
    643,        4537.,  -399.486908,   865.766418
    644,        4537.,  -355.099487,   886.459045
    645,        4537.,  -310.712036,   907.151672
    646,        4537.,  -266.324615,   927.844299
    647,        4537.,   -221.93718,   948.536926
    648,        4537.,  -177.549744,   969.229553
    649,        4537.,  -133.162308,   989.922119
    650,        4537.,  -88.7748718,   1010.61475
    651,        4537.,  -44.3874359,   1031.30737
    652,           0.,   45.4119148,   1073.17017
    653,           0.,   90.8238297,   1094.34045
    654,           0.,   136.235748,   1115.51062
    655,           0.,   181.647659,   1136.68091
    656,           0.,    227.05957,   1157.85107
    657,           0.,   272.471497,   1179.02124
    658,           0.,   317.883392,   1200.19153
    659,           0.,   363.295319,   1221.36169
    660,           0.,   408.707245,   1242.53186
    661,           0.,   454.119141,   1263.70215
    662,           0.,   499.531067,   1284.87231
    663,           0.,   544.942993,    1306.0426
    664,           0.,   590.354919,   1327.21277
    665,           0.,   635.766785,   1348.38293
    666,           0.,   681.178711,   1369.55322
    667,           0.,   726.590637,   1390.72339
    668,           0.,   772.002563,   1411.89368
    669,           0.,    817.41449,   1433.06384
    670,           0.,   862.826355,   1454.23401
    671,           0.,   908.238281,    1475.4043
    672,           0.,   953.650208,   1496.57446
    673,           0.,   999.062134,   1517.74463
    674,           0.,     1044.474,   1538.91492
    675,           0.,   1089.88599,   1560.08508
    676,           0.,   1135.29785,   1581.25537
    677,           0.,   1180.70984,   1602.42554
    678,           0.,    1226.1217,    1623.5957
    679,           0.,   1271.53357,   1644.76599
    680,           0.,   1316.94556,   1665.93616
    681,           0.,   1362.35742,   1687.10632
    682,           0.,   1407.76941,   1708.27661
    683,           0.,   1453.18127,   1729.44678
    684,           0.,   1498.59314,   1750.61707
    685,           0.,   1544.00513,   1771.78723
    686,           0.,   1589.41699,    1792.9574
    687,           0.,   1634.82898,   1814.12769
    688,           0.,   1680.24084,   1835.29785
    689,           0.,   1725.65271,   1856.46814
    690,           0.,    1771.0647,   1877.63831
    691,           0.,   1816.47656,   1898.80847
    692,           0.,   1861.88855,   1919.97876
    693,           0.,   1907.30042,   1941.14893
    694,           0.,   1952.71228,   1962.31909
    695,           0.,   1998.12427,   1983.48938
    696,           0.,   2043.53613,   2004.65955
    697,           0.,     2088.948,   2025.82983
    698,           0.,   48.5081825,    915.40387
    699,           0.,   97.0163651,   903.807739
    700,           0.,   145.524551,   892.211609
    701,           0.,    194.03273,   880.615479
    702,           0.,   242.540909,   869.019348
    703,           0.,   291.049103,   857.423157
    704,           0.,   339.557281,   845.827026
    705,           0.,    388.06546,   834.230896
    706,           0.,   436.573639,   822.634766
    707,           0.,   485.081818,   811.038635
    708,           0.,   533.590027,   799.442505
    709,           0.,   582.098206,   787.846375
    710,           0.,   630.606384,   776.250244
    711,           0.,   679.114563,   764.654114
    712,           0.,   727.622742,   753.057983
    713,           0.,    776.13092,   741.461792
    714,           0.,   824.639099,   729.865662
    715,           0.,   873.147278,   718.269531
    716,           0.,   921.655457,   706.673401
    717,           0.,   970.163635,   695.077271
    718,           0.,   1018.67181,    683.48114
    719,           0.,   1067.18005,    671.88501
    720,           0.,   1115.68823,   660.288879
    721,           0.,   1164.19641,   648.692749
    722,           0.,   1212.70459,   637.096619
    723,           0.,   1261.21277,   625.500427
    724,           0.,   1309.72095,   613.904297
    725,           0.,   1358.22913,   602.308167
    726,           0.,    1406.7373,   590.712036
    727,           0.,   1455.24548,   579.115906
    728,           0.,   1503.75366,   567.519775
    729,           0.,   1552.26184,   555.923645
    730,           0.,   1600.77002,   544.327515
    731,           0.,    1649.2782,   532.731384
    732,           0.,   1697.78638,   521.135254
    733,           0.,   1746.29456,   509.539093
    734,           0.,   1794.80273,   497.942963
    735,           0.,   1843.31091,   486.346832
    736,           0.,   1891.81909,   474.750671
    737,           0.,   1940.32727,   463.154541
    738,           0.,   1988.83545,   451.558411
    739,           0.,   2037.34363,    439.96228
    740,           0.,   2085.85181,    428.36615
    741,   16137.2842,   2888.94629,   2398.77441
    742,   16188.8408,   2888.94629,   2398.77441
    743,   16240.3975,   2888.94629,   2398.77441
    744,   16291.9541,   2888.94629,   2398.77441
    745,   16343.5117,   2888.94629,   2398.77441
    746,   16395.0684,   2888.94629,   2398.77441
    747,    16446.625,   2888.94629,   2398.77441
    748,   16498.1816,   2888.94629,   2398.77441
    749,   16549.7383,   2888.94629,   2398.77441
    750,   16601.2949,   2888.94629,   2398.77441
    751,   16652.8516,   2888.94629,   2398.77441
    752,   16704.4082,   2888.94629,   2398.77441
    753,   16755.9668,   2888.94629,   2398.77441
    754,   16807.5234,   2888.94629,   2398.77441
    755,   16859.0801,   2888.94629,   2398.77441
    756,    15312.375,   2888.94629,   2398.77441
    757,   15363.9316,   2888.94629,   2398.77441
    758,   15415.4883,   2888.94629,   2398.77441
    759,   15467.0459,   2888.94629,   2398.77441
    760,   15518.6025,   2888.94629,   2398.77441
    761,   15570.1592,   2888.94629,   2398.77441
    762,   15621.7158,   2888.94629,   2398.77441
    763,   15673.2725,   2888.94629,   2398.77441
    764,   15724.8291,   2888.94629,   2398.77441
    765,   15776.3867,   2888.94629,   2398.77441
    766,   15827.9434,   2888.94629,   2398.77441
    767,      15879.5,   2888.94629,   2398.77441
    768,   15931.0566,   2888.94629,   2398.77441
    769,   15982.6133,   2888.94629,   2398.77441
    770,   16034.1709,   2888.94629,   2398.77441
    771,   14487.4658,   2888.94629,   2398.77441
    772,   14539.0225,   2888.94629,   2398.77441
    773,   14590.5791,   2888.94629,   2398.77441
    774,   14642.1367,   2888.94629,   2398.77441
    775,   14693.6934,   2888.94629,   2398.77441
    776,     14745.25,   2888.94629,   2398.77441
    777,   14796.8066,   2888.94629,   2398.77441
    778,   14848.3633,   2888.94629,   2398.77441
    779,   14899.9209,   2888.94629,   2398.77441
    780,   14951.4775,   2888.94629,   2398.77441
    781,   15003.0342,   2888.94629,   2398.77441
    782,   15054.5908,   2888.94629,   2398.77441
    783,   15106.1475,   2888.94629,   2398.77441
    784,   15157.7041,   2888.94629,   2398.77441
    785,   15209.2617,   2888.94629,   2398.77441
    786,   13662.5566,   2888.94629,   2398.77441
    787,   13714.1133,   2888.94629,   2398.77441
    788,   13765.6709,   2888.94629,   2398.77441
    789,   13817.2275,   2888.94629,   2398.77441
    790,   13868.7842,   2888.94629,   2398.77441
    791,   13920.3408,   2888.94629,   2398.77441
    792,   13971.8975,   2888.94629,   2398.77441
    793,   14023.4541,   2888.94629,   2398.77441
    794,   14075.0117,   2888.94629,   2398.77441
    795,   14126.5684,   2888.94629,   2398.77441
    796,    14178.125,   2888.94629,   2398.77441
    797,   14229.6816,   2888.94629,   2398.77441
    798,   14281.2383,   2888.94629,   2398.77441
    799,   14332.7959,   2888.94629,   2398.77441
    800,   14384.3525,   2888.94629,   2398.77441
    801,   12837.6475,   2888.94629,   2398.77441
    802,   12889.2041,   2888.94629,   2398.77441
    803,   12940.7617,   2888.94629,   2398.77441
    804,   12992.3184,   2888.94629,   2398.77441
    805,    13043.875,   2888.94629,   2398.77441
    806,   13095.4316,   2888.94629,   2398.77441
    807,   13146.9883,   2888.94629,   2398.77441
    808,   13198.5459,   2888.94629,   2398.77441
    809,   13250.1025,   2888.94629,   2398.77441
    810,   13301.6592,   2888.94629,   2398.77441
    811,   13353.2158,   2888.94629,   2398.77441
    812,   13404.7725,   2888.94629,   2398.77441
    813,   13456.3291,   2888.94629,   2398.77441
    814,   13507.8867,   2888.94629,   2398.77441
    815,   13559.4434,   2888.94629,   2398.77441
    816,   12012.7383,   2888.94629,   2398.77441
    817,   12064.2959,   2888.94629,   2398.77441
    818,   12115.8525,   2888.94629,   2398.77441
    819,   12167.4092,   2888.94629,   2398.77441
    820,   12218.9658,   2888.94629,   2398.77441
    821,   12270.5225,   2888.94629,   2398.77441
    822,   12322.0791,   2888.94629,   2398.77441
    823,   12373.6367,   2888.94629,   2398.77441
    824,   12425.1934,   2888.94629,   2398.77441
    825,     12476.75,   2888.94629,   2398.77441
    826,   12528.3066,   2888.94629,   2398.77441
    827,   12579.8633,   2888.94629,   2398.77441
    828,   12631.4209,   2888.94629,   2398.77441
    829,   12682.9775,   2888.94629,   2398.77441
    830,   12734.5342,   2888.94629,   2398.77441
    831,   11187.8291,   2888.94629,   2398.77441
    832,   11239.3867,   2888.94629,   2398.77441
    833,   11290.9434,   2888.94629,   2398.77441
    834,      11342.5,   2888.94629,   2398.77441
    835,   11394.0566,   2888.94629,   2398.77441
    836,   11445.6133,   2888.94629,   2398.77441
    837,   11497.1709,   2888.94629,   2398.77441
    838,   11548.7275,   2888.94629,   2398.77441
    839,   11600.2842,   2888.94629,   2398.77441
    840,   11651.8408,   2888.94629,   2398.77441
    841,   11703.3975,   2888.94629,   2398.77441
    842,   11754.9541,   2888.94629,   2398.77441
    843,   11806.5117,   2888.94629,   2398.77441
    844,   11858.0684,   2888.94629,   2398.77441
    845,    11909.625,   2888.94629,   2398.77441
    846,   10362.9209,   2888.94629,   2398.77441
    847,   10414.4775,   2888.94629,   2398.77441
    848,   10466.0342,   2888.94629,   2398.77441
    849,   10517.5908,   2888.94629,   2398.77441
    850,   10569.1475,   2888.94629,   2398.77441
    851,   10620.7041,   2888.94629,   2398.77441
    852,   10672.2617,   2888.94629,   2398.77441
    853,   10723.8184,   2888.94629,   2398.77441
    854,    10775.375,   2888.94629,   2398.77441
    855,   10826.9316,   2888.94629,   2398.77441
    856,   10878.4883,   2888.94629,   2398.77441
    857,   10930.0459,   2888.94629,   2398.77441
    858,   10981.6025,   2888.94629,   2398.77441
    859,   11033.1592,   2888.94629,   2398.77441
    860,   11084.7158,   2888.94629,   2398.77441
    861,   9538.01172,   2888.94629,   2398.77441
    862,   9589.56836,   2888.94629,   2398.77441
    863,     9641.125,   2888.94629,   2398.77441
    864,   9692.68164,   2888.94629,   2398.77441
    865,   9744.23828,   2888.94629,   2398.77441
    866,    9795.7959,   2888.94629,   2398.77441
    867,   9847.35254,   2888.94629,   2398.77441
    868,   9898.90918,   2888.94629,   2398.77441
    869,   9950.46582,   2888.94629,   2398.77441
    870,   10002.0225,   2888.94629,   2398.77441
    871,   10053.5791,   2888.94629,   2398.77441
    872,   10105.1367,   2888.94629,   2398.77441
    873,   10156.6934,   2888.94629,   2398.77441
    874,     10208.25,   2888.94629,   2398.77441
    875,   10259.8066,   2888.94629,   2398.77441
    876,   9125.55664,   2888.94629,   2398.77441
    877,   9177.11328,   2888.94629,   2398.77441
    878,    9228.6709,   2888.94629,   2398.77441
    879,   9280.22754,   2888.94629,   2398.77441
    880,   9331.78418,   2888.94629,   2398.77441
    881,   9383.34082,   2888.94629,   2398.77441
    882,   9434.89746,   2888.94629,   2398.77441
    883,   8713.10254,   2888.94629,   2398.77441
    884,   8764.65918,   2888.94629,   2398.77441
    885,   8816.21582,   2888.94629,   2398.77441
    886,   8867.77246,   2888.94629,   2398.77441
    887,    8919.3291,   2888.94629,   2398.77441
    888,   8970.88672,   2888.94629,   2398.77441
    889,   9022.44336,   2888.94629,   2398.77441
    890,   7888.19336,   2888.94629,   2398.77441
    891,      7939.75,   2888.94629,   2398.77441
    892,   7991.30664,   2888.94629,   2398.77441
    893,   8042.86377,   2888.94629,   2398.77441
    894,   8094.42041,   2888.94629,   2398.77441
    895,   8145.97705,   2888.94629,   2398.77441
    896,   8197.53418,   2888.94629,   2398.77441
    897,   8249.09082,   2888.94629,   2398.77441
    898,   8300.64746,   2888.94629,   2398.77441
    899,    8352.2041,   2888.94629,   2398.77441
    900,   8403.76172,   2888.94629,   2398.77441
    901,   8455.31836,   2888.94629,   2398.77441
    902,     8506.875,   2888.94629,   2398.77441
    903,   8558.43164,   2888.94629,   2398.77441
    904,   8609.98828,   2888.94629,   2398.77441
    905,   7063.28418,   2888.94629,   2398.77441
    906,   7114.84082,   2888.94629,   2398.77441
    907,   7166.39795,   2888.94629,   2398.77441
    908,   7217.95459,   2888.94629,   2398.77441
    909,   7269.51123,   2888.94629,   2398.77441
    910,   7321.06836,   2888.94629,   2398.77441
    911,     7372.625,   2888.94629,   2398.77441
    912,   7424.18164,   2888.94629,   2398.77441
    913,   7475.73877,   2888.94629,   2398.77441
    914,   7527.29541,   2888.94629,   2398.77441
    915,   7578.85205,   2888.94629,   2398.77441
    916,   7630.40918,   2888.94629,   2398.77441
    917,   7681.96582,   2888.94629,   2398.77441
    918,   7733.52295,   2888.94629,   2398.77441
    919,   7785.07959,   2888.94629,   2398.77441
    920,     6238.375,   2888.94629,   2398.77441
    921,   6289.93164,   2888.94629,   2398.77441
    922,   6341.48877,   2888.94629,   2398.77441
    923,   6393.04541,   2888.94629,   2398.77441
    924,   6444.60205,   2888.94629,   2398.77441
    925,   6496.15918,   2888.94629,   2398.77441
    926,   6547.71582,   2888.94629,   2398.77441
    927,   6599.27295,   2888.94629,   2398.77441
    928,   6650.82959,   2888.94629,   2398.77441
    929,   6702.38623,   2888.94629,   2398.77441
    930,   6753.94336,   2888.94629,   2398.77441
    931,       6805.5,   2888.94629,   2398.77441
    932,   6857.05664,   2888.94629,   2398.77441
    933,   6908.61377,   2888.94629,   2398.77441
    934,   6960.17041,   2888.94629,   2398.77441
    935,   5413.46582,   2888.94629,   2398.77441
    936,   5465.02295,   2888.94629,   2398.77441
    937,   5516.57959,   2888.94629,   2398.77441
    938,   5568.13623,   2888.94629,   2398.77441
    939,   5619.69336,   2888.94629,   2398.77441
    940,      5671.25,   2888.94629,   2398.77441
    941,   5722.80664,   2888.94629,   2398.77441
    942,   5774.36377,   2888.94629,   2398.77441
    943,   5825.92041,   2888.94629,   2398.77441
    944,   5877.47705,   2888.94629,   2398.77441
    945,   5929.03418,   2888.94629,   2398.77441
    946,   5980.59082,   2888.94629,   2398.77441
    947,   6032.14795,   2888.94629,   2398.77441
    948,   6083.70459,   2888.94629,   2398.77441
    949,   6135.26123,   2888.94629,   2398.77441
    950,   4588.55664,   2888.94629,   2398.77441
    951,   4640.11377,   2888.94629,   2398.77441
    952,   4691.67041,   2888.94629,   2398.77441
    953,   4743.22705,   2888.94629,   2398.77441
    954,   4794.78418,   2888.94629,   2398.77441
    955,   4846.34082,   2888.94629,   2398.77441
    956,   4897.89795,   2888.94629,   2398.77441
    957,   4949.45459,   2888.94629,   2398.77441
    958,   5001.01123,   2888.94629,   2398.77441
    959,   5052.56836,   2888.94629,   2398.77441
    960,     5104.125,   2888.94629,   2398.77441
    961,   5155.68164,   2888.94629,   2398.77441
    962,   5207.23877,   2888.94629,   2398.77441
    963,   5258.79541,   2888.94629,   2398.77441
    964,   5310.35205,   2888.94629,   2398.77441
    965,   3763.64771,   2888.94629,   2398.77441
    966,   3815.20459,   2888.94629,   2398.77441
    967,   3866.76147,   2888.94629,   2398.77441
    968,   3918.31812,   2888.94629,   2398.77441
    969,     3969.875,   2888.94629,   2398.77441
    970,   4021.43188,   2888.94629,   2398.77441
    971,   4072.98853,   2888.94629,   2398.77441
    972,   4124.54541,   2888.94629,   2398.77441
    973,   4176.10205,   2888.94629,   2398.77441
    974,   4227.65918,   2888.94629,   2398.77441
    975,   4279.21582,   2888.94629,   2398.77441
    976,   4330.77295,   2888.94629,   2398.77441
    977,   4382.32959,   2888.94629,   2398.77441
    978,   4433.88623,   2888.94629,   2398.77441
    979,   4485.44336,   2888.94629,   2398.77441
    980,   2938.73853,   2888.94629,   2398.77441
    981,   2990.29541,   2888.94629,   2398.77441
    982,   3041.85229,   2888.94629,   2398.77441
    983,   3093.40918,   2888.94629,   2398.77441
    984,   3144.96582,   2888.94629,   2398.77441
    985,   3196.52271,   2888.94629,   2398.77441
    986,   3248.07959,   2888.94629,   2398.77441
    987,   3299.63647,   2888.94629,   2398.77441
    988,   3351.19312,   2888.94629,   2398.77441
    989,      3402.75,   2888.94629,   2398.77441
    990,   3454.30688,   2888.94629,   2398.77441
    991,   3505.86353,   2888.94629,   2398.77441
    992,   3557.42041,   2888.94629,   2398.77441
    993,   3608.97729,   2888.94629,   2398.77441
    994,   3660.53418,   2888.94629,   2398.77441
    995,   2113.82959,   2888.94629,   2398.77441
    996,   2165.38647,   2888.94629,   2398.77441
    997,   2216.94312,   2888.94629,   2398.77441
    998,       2268.5,   2888.94629,   2398.77441
    999,   2320.05688,   2888.94629,   2398.77441
   1000,   2371.61353,   2888.94629,   2398.77441
   1001,   2423.17041,   2888.94629,   2398.77441
   1002,   2474.72729,   2888.94629,   2398.77441
   1003,   2526.28418,   2888.94629,   2398.77441
   1004,   2577.84082,   2888.94629,   2398.77441
   1005,   2629.39771,   2888.94629,   2398.77441
   1006,   2680.95459,   2888.94629,   2398.77441
   1007,   2732.51147,   2888.94629,   2398.77441
   1008,   2784.06812,   2888.94629,   2398.77441
   1009,     2835.625,   2888.94629,   2398.77441
   1010,   1288.92041,   2888.94629,   2398.77441
   1011,   1340.47729,   2888.94629,   2398.77441
   1012,   1392.03406,   2888.94629,   2398.77441
   1013,   1443.59094,   2888.94629,   2398.77441
   1014,   1495.14771,   2888.94629,   2398.77441
   1015,   1546.70459,   2888.94629,   2398.77441
   1016,   1598.26135,   2888.94629,   2398.77441
   1017,   1649.81824,   2888.94629,   2398.77441
   1018,     1701.375,   2888.94629,   2398.77441
   1019,   1752.93176,   2888.94629,   2398.77441
   1020,   1804.48865,   2888.94629,   2398.77441
   1021,   1856.04541,   2888.94629,   2398.77441
   1022,   1907.60229,   2888.94629,   2398.77441
   1023,   1959.15906,   2888.94629,   2398.77441
   1024,   2010.71594,   2888.94629,   2398.77441
   1025,   464.011353,   2888.94629,   2398.77441
   1026,   515.568176,   2888.94629,   2398.77441
   1027,      567.125,   2888.94629,   2398.77441
   1028,   618.681824,   2888.94629,   2398.77441
   1029,   670.238647,   2888.94629,   2398.77441
   1030,   721.795471,   2888.94629,   2398.77441
   1031,   773.352295,   2888.94629,   2398.77441
   1032,   824.909119,   2888.94629,   2398.77441
   1033,   876.465881,   2888.94629,   2398.77441
   1034,   928.022705,   2888.94629,   2398.77441
   1035,   979.579529,   2888.94629,   2398.77441
   1036,   1031.13635,   2888.94629,   2398.77441
   1037,   1082.69324,   2888.94629,   2398.77441
   1038,      1134.25,   2888.94629,   2398.77441
   1039,   1185.80676,   2888.94629,   2398.77441
   1040,   51.5568199,   2888.94629,   2398.77441
   1041,    103.11364,   2888.94629,   2398.77441
   1042,   154.670456,   2888.94629,   2398.77441
   1043,    206.22728,   2888.94629,   2398.77441
   1044,   257.784088,   2888.94629,   2398.77441
   1045,   309.340912,   2888.94629,   2398.77441
   1046,   360.897736,   2888.94629,   2398.77441
   1047,           0.,   2178.74731,   2067.69263
   1048,           0.,   2223.13477,   2088.38525
   1049,           0.,   2267.52222,   2109.07788
   1050,           0.,   2311.90967,   2129.77051
   1051,           0.,   2356.29712,   2150.46313
   1052,           0.,   2400.68457,   2171.15576
   1053,           0.,   2445.07202,   2191.84839
   1054,           0.,   2489.45947,   2212.54102
   1055,           0.,   2533.84692,   2233.23364
   1056,           0.,   2578.23438,   2253.92627
   1057,           0.,   2622.62183,    2274.6189
   1058,           0.,   2667.00928,   2295.31152
   1059,           0.,   2711.39673,   2316.00415
   1060,           0.,   2755.78418,   2336.69678
   1061,           0.,   2800.17163,   2357.38916
   1062,           0.,   2844.55884,   2378.08179
   1063,       18148.,   48.5081825,    915.40387
   1064,       18148.,   97.0163651,   903.807739
   1065,       18148.,   145.524551,   892.211609
   1066,       18148.,    194.03273,   880.615479
   1067,       18148.,   242.540909,   869.019348
   1068,       18148.,   291.049103,   857.423157
   1069,       18148.,   339.557281,   845.827026
   1070,       18148.,    388.06546,   834.230896
   1071,       18148.,   436.573639,   822.634766
   1072,       18148.,   485.081818,   811.038635
   1073,       18148.,   533.590027,   799.442505
   1074,       18148.,   582.098206,   787.846375
   1075,       18148.,   630.606384,   776.250244
   1076,       18148.,   679.114563,   764.654114
   1077,       18148.,   727.622742,   753.057983
   1078,       18148.,    776.13092,   741.461792
   1079,       18148.,   824.639099,   729.865662
   1080,       18148.,   873.147278,   718.269531
   1081,       18148.,   921.655457,   706.673401
   1082,       18148.,   970.163635,   695.077271
   1083,       18148.,   1018.67181,    683.48114
   1084,       18148.,   1067.18005,    671.88501
   1085,       18148.,   1115.68823,   660.288879
   1086,       18148.,   1164.19641,   648.692749
   1087,       18148.,   1212.70459,   637.096619
   1088,       18148.,   1261.21277,   625.500427
   1089,       18148.,   1309.72095,   613.904297
   1090,       18148.,   1358.22913,   602.308167
   1091,       18148.,    1406.7373,   590.712036
   1092,       18148.,   1455.24548,   579.115906
   1093,       18148.,   1503.75366,   567.519775
   1094,       18148.,   1552.26184,   555.923645
   1095,       18148.,   1600.77002,   544.327515
   1096,       18148.,    1649.2782,   532.731384
   1097,       18148.,   1697.78638,   521.135254
   1098,       18148.,   1746.29456,   509.539093
   1099,       18148.,   1794.80273,   497.942963
   1100,       18148.,   1843.31091,   486.346832
   1101,       18148.,   1891.81909,   474.750671
   1102,       18148.,   1940.32727,   463.154541
   1103,       18148.,   1988.83545,   451.558411
   1104,       18148.,   2037.34363,    439.96228
   1105,       18148.,   2085.85181,    428.36615
   1106,       13611.,           0.,   968.666687
   1107,       13611.,           0.,   1010.33331
   1108,       13611.,           0.,   48.7894745
   1109,       13611.,           0.,    97.578949
   1110,       13611.,           0.,   146.368423
   1111,       13611.,           0.,   195.157898
   1112,       13611.,           0.,   243.947372
   1113,       13611.,           0.,   292.736847
   1114,       13611.,           0.,   341.526306
   1115,       13611.,           0.,   390.315796
   1116,       13611.,           0.,   439.105255
   1117,       13611.,           0.,   487.894745
   1118,       13611.,           0.,   536.684204
   1119,       13611.,           0.,   585.473694
   1120,       13611.,           0.,   634.263184
   1121,       13611.,           0.,   683.052612
   1122,       13611.,           0.,   731.842102
   1123,       13611.,           0.,   780.631592
   1124,       13611.,           0.,   829.421082
   1125,       13611.,           0.,    878.21051
   1126,        9074.,           0.,   968.666687
   1127,        9074.,           0.,   1010.33331
   1128,        9074.,           0.,   48.7894745
   1129,        9074.,           0.,    97.578949
   1130,        9074.,           0.,   146.368423
   1131,        9074.,           0.,   195.157898
   1132,        9074.,           0.,   243.947372
   1133,        9074.,           0.,   292.736847
   1134,        9074.,           0.,   341.526306
   1135,        9074.,           0.,   390.315796
   1136,        9074.,           0.,   439.105255
   1137,        9074.,           0.,   487.894745
   1138,        9074.,           0.,   536.684204
   1139,        9074.,           0.,   585.473694
   1140,        9074.,           0.,   634.263184
   1141,        9074.,           0.,   683.052612
   1142,        9074.,           0.,   731.842102
   1143,        9074.,           0.,   780.631592
   1144,        9074.,           0.,   829.421082
   1145,        9074.,           0.,    878.21051
   1146,        4537.,           0.,   968.666687
   1147,        4537.,           0.,   1010.33331
   1148,        4537.,           0.,   48.7894745
   1149,        4537.,           0.,    97.578949
   1150,        4537.,           0.,   146.368423
   1151,        4537.,           0.,   195.157898
   1152,        4537.,           0.,   243.947372
   1153,        4537.,           0.,   292.736847
   1154,        4537.,           0.,   341.526306
   1155,        4537.,           0.,   390.315796
   1156,        4537.,           0.,   439.105255
   1157,        4537.,           0.,   487.894745
   1158,        4537.,           0.,   536.684204
   1159,        4537.,           0.,   585.473694
   1160,        4537.,           0.,   634.263184
   1161,        4537.,           0.,   683.052612
   1162,        4537.,           0.,   731.842102
   1163,        4537.,           0.,   780.631592
   1164,        4537.,           0.,   829.421082
   1165,        4537.,           0.,    878.21051
   1166,           0.,   2134.36011,   466.170898
   1167,           0.,   2134.36011,   515.571838
   1168,           0.,   2134.36011,   564.972717
   1169,           0.,   2134.36011,   614.373657
   1170,           0.,   2134.36011,   663.774536
   1171,           0.,   2134.36011,   713.175476
   1172,           0.,   2134.36011,   762.576355
   1173,           0.,   2134.36011,   811.977295
   1174,           0.,   2134.36011,   861.378174
   1175,           0.,   2134.36011,   910.779114
   1176,           0.,   2134.36011,   960.179993
   1177,           0.,   2134.36011,   1009.58093
   1178,           0.,   2134.36011,   1058.98181
   1179,           0.,   2134.36011,   1108.38269
   1180,           0.,   2134.36011,   1157.78369
   1181,           0.,   2134.36011,   1207.18457
   1182,           0.,   2134.36011,   1256.58545
   1183,           0.,   2134.36011,   1305.98633
   1184,           0.,   2134.36011,   1355.38733
   1185,           0.,   2134.36011,   1404.78821
   1186,           0.,   2134.36011,   1454.18909
   1187,           0.,   2134.36011,   1503.58997
   1188,           0.,   2134.36011,   1552.99097
   1189,           0.,   2134.36011,   1602.39185
   1190,           0.,   2134.36011,   1651.79272
   1191,           0.,   2134.36011,    1701.1936
   1192,           0.,   2134.36011,    1750.5946
   1193,           0.,   2134.36011,   1799.99548
   1194,           0.,   2134.36011,   1849.39636
   1195,           0.,   2134.36011,   1898.79724
   1196,           0.,   2134.36011,   1948.19824
   1197,           0.,   2134.36011,   1997.59912
   1198,           0.,   2134.36011,   52.0962486
   1199,           0.,   2134.36011,   104.192497
   1200,           0.,   2134.36011,   156.288757
   1201,           0.,   2134.36011,   208.384995
   1202,           0.,   2134.36011,   260.481262
   1203,           0.,   2134.36011,   312.577515
   1204,           0.,   2134.36011,   364.673737
   1205,       13611.,   2178.74731,   2067.69263
   1206,       13611.,   2223.13477,   2088.38525
   1207,       13611.,   2267.52222,   2109.07788
   1208,       13611.,   2311.90967,   2129.77051
   1209,       13611.,   2356.29712,   2150.46313
   1210,       13611.,   2400.68457,   2171.15576
   1211,       13611.,   2445.07202,   2191.84839
   1212,       13611.,   2489.45947,   2212.54102
   1213,       13611.,   2533.84692,   2233.23364
   1214,       13611.,   2578.23438,   2253.92627
   1215,       13611.,   2622.62183,    2274.6189
   1216,       13611.,   2667.00928,   2295.31152
   1217,       13611.,   2711.39673,   2316.00415
   1218,       13611.,   2755.78418,   2336.69678
   1219,       13611.,   2800.17163,   2357.38916
   1220,       13611.,   2844.55884,   2378.08179
   1221,       13611.,   45.4119148,   1073.17017
   1222,       13611.,   90.8238297,   1094.34045
   1223,       13611.,   136.235748,   1115.51062
   1224,       13611.,   181.647659,   1136.68091
   1225,       13611.,    227.05957,   1157.85107
   1226,       13611.,   272.471497,   1179.02124
   1227,       13611.,   317.883392,   1200.19153
   1228,       13611.,   363.295319,   1221.36169
   1229,       13611.,   408.707245,   1242.53186
   1230,       13611.,   454.119141,   1263.70215
   1231,       13611.,   499.531067,   1284.87231
   1232,       13611.,   544.942993,    1306.0426
   1233,       13611.,   590.354919,   1327.21277
   1234,       13611.,   635.766785,   1348.38293
   1235,       13611.,   681.178711,   1369.55322
   1236,       13611.,   726.590637,   1390.72339
   1237,       13611.,   772.002563,   1411.89368
   1238,       13611.,    817.41449,   1433.06384
   1239,       13611.,   862.826355,   1454.23401
   1240,       13611.,   908.238281,    1475.4043
   1241,       13611.,   953.650208,   1496.57446
   1242,       13611.,   999.062134,   1517.74463
   1243,       13611.,     1044.474,   1538.91492
   1244,       13611.,   1089.88599,   1560.08508
   1245,       13611.,   1135.29785,   1581.25537
   1246,       13611.,   1180.70984,   1602.42554
   1247,       13611.,    1226.1217,    1623.5957
   1248,       13611.,   1271.53357,   1644.76599
   1249,       13611.,   1316.94556,   1665.93616
   1250,       13611.,   1362.35742,   1687.10632
   1251,       13611.,   1407.76941,   1708.27661
   1252,       13611.,   1453.18127,   1729.44678
   1253,       13611.,   1498.59314,   1750.61707
   1254,       13611.,   1544.00513,   1771.78723
   1255,       13611.,   1589.41699,    1792.9574
   1256,       13611.,   1634.82898,   1814.12769
   1257,       13611.,   1680.24084,   1835.29785
   1258,       13611.,   1725.65271,   1856.46814
   1259,       13611.,    1771.0647,   1877.63831
   1260,       13611.,   1816.47656,   1898.80847
   1261,       13611.,   1861.88855,   1919.97876
   1262,       13611.,   1907.30042,   1941.14893
   1263,       13611.,   1952.71228,   1962.31909
   1264,       13611.,   1998.12427,   1983.48938
   1265,       13611.,   2043.53613,   2004.65955
   1266,       13611.,     2088.948,   2025.82983
   1267,        9074.,   2178.74731,   2067.69263
   1268,        9074.,   2223.13477,   2088.38525
   1269,        9074.,   2267.52222,   2109.07788
   1270,        9074.,   2311.90967,   2129.77051
   1271,        9074.,   2356.29712,   2150.46313
   1272,        9074.,   2400.68457,   2171.15576
   1273,        9074.,   2445.07202,   2191.84839
   1274,        9074.,   2489.45947,   2212.54102
   1275,        9074.,   2533.84692,   2233.23364
   1276,        9074.,   2578.23438,   2253.92627
   1277,        9074.,   2622.62183,    2274.6189
   1278,        9074.,   2667.00928,   2295.31152
   1279,        9074.,   2711.39673,   2316.00415
   1280,        9074.,   2755.78418,   2336.69678
   1281,        9074.,   2800.17163,   2357.38916
   1282,        9074.,   2844.55884,   2378.08179
   1283,        9074.,   45.4119148,   1073.17017
   1284,        9074.,   90.8238297,   1094.34045
   1285,        9074.,   136.235748,   1115.51062
   1286,        9074.,   181.647659,   1136.68091
   1287,        9074.,    227.05957,   1157.85107
   1288,        9074.,   272.471497,   1179.02124
   1289,        9074.,   317.883392,   1200.19153
   1290,        9074.,   363.295319,   1221.36169
   1291,        9074.,   408.707245,   1242.53186
   1292,        9074.,   454.119141,   1263.70215
   1293,        9074.,   499.531067,   1284.87231
   1294,        9074.,   544.942993,    1306.0426
   1295,        9074.,   590.354919,   1327.21277
   1296,        9074.,   635.766785,   1348.38293
   1297,        9074.,   681.178711,   1369.55322
   1298,        9074.,   726.590637,   1390.72339
   1299,        9074.,   772.002563,   1411.89368
   1300,        9074.,    817.41449,   1433.06384
   1301,        9074.,   862.826355,   1454.23401
   1302,        9074.,   908.238281,    1475.4043
   1303,        9074.,   953.650208,   1496.57446
   1304,        9074.,   999.062134,   1517.74463
   1305,        9074.,     1044.474,   1538.91492
   1306,        9074.,   1089.88599,   1560.08508
   1307,        9074.,   1135.29785,   1581.25537
   1308,        9074.,   1180.70984,   1602.42554
   1309,        9074.,    1226.1217,    1623.5957
   1310,        9074.,   1271.53357,   1644.76599
   1311,        9074.,   1316.94556,   1665.93616
   1312,        9074.,   1362.35742,   1687.10632
   1313,        9074.,   1407.76941,   1708.27661
   1314,        9074.,   1453.18127,   1729.44678
   1315,        9074.,   1498.59314,   1750.61707
   1316,        9074.,   1544.00513,   1771.78723
   1317,        9074.,   1589.41699,    1792.9574
   1318,        9074.,   1634.82898,   1814.12769
   1319,        9074.,   1680.24084,   1835.29785
   1320,        9074.,   1725.65271,   1856.46814
   1321,        9074.,    1771.0647,   1877.63831
   1322,        9074.,   1816.47656,   1898.80847
   1323,        9074.,   1861.88855,   1919.97876
   1324,        9074.,   1907.30042,   1941.14893
   1325,        9074.,   1952.71228,   1962.31909
   1326,        9074.,   1998.12427,   1983.48938
   1327,        9074.,   2043.53613,   2004.65955
   1328,        9074.,     2088.948,   2025.82983
   1329,        4537.,   2178.74731,   2067.69263
   1330,        4537.,   2223.13477,   2088.38525
   1331,        4537.,   2267.52222,   2109.07788
   1332,        4537.,   2311.90967,   2129.77051
   1333,        4537.,   2356.29712,   2150.46313
   1334,        4537.,   2400.68457,   2171.15576
   1335,        4537.,   2445.07202,   2191.84839
   1336,        4537.,   2489.45947,   2212.54102
   1337,        4537.,   2533.84692,   2233.23364
   1338,        4537.,   2578.23438,   2253.92627
   1339,        4537.,   2622.62183,    2274.6189
   1340,        4537.,   2667.00928,   2295.31152
   1341,        4537.,   2711.39673,   2316.00415
   1342,        4537.,   2755.78418,   2336.69678
   1343,        4537.,   2800.17163,   2357.38916
   1344,        4537.,   2844.55884,   2378.08179
   1345,        4537.,   45.4119148,   1073.17017
   1346,        4537.,   90.8238297,   1094.34045
   1347,        4537.,   136.235748,   1115.51062
   1348,        4537.,   181.647659,   1136.68091
   1349,        4537.,    227.05957,   1157.85107
   1350,        4537.,   272.471497,   1179.02124
   1351,        4537.,   317.883392,   1200.19153
   1352,        4537.,   363.295319,   1221.36169
   1353,        4537.,   408.707245,   1242.53186
   1354,        4537.,   454.119141,   1263.70215
   1355,        4537.,   499.531067,   1284.87231
   1356,        4537.,   544.942993,    1306.0426
   1357,        4537.,   590.354919,   1327.21277
   1358,        4537.,   635.766785,   1348.38293
   1359,        4537.,   681.178711,   1369.55322
   1360,        4537.,   726.590637,   1390.72339
   1361,        4537.,   772.002563,   1411.89368
   1362,        4537.,    817.41449,   1433.06384
   1363,        4537.,   862.826355,   1454.23401
   1364,        4537.,   908.238281,    1475.4043
   1365,        4537.,   953.650208,   1496.57446
   1366,        4537.,   999.062134,   1517.74463
   1367,        4537.,     1044.474,   1538.91492
   1368,        4537.,   1089.88599,   1560.08508
   1369,        4537.,   1135.29785,   1581.25537
   1370,        4537.,   1180.70984,   1602.42554
   1371,        4537.,    1226.1217,    1623.5957
   1372,        4537.,   1271.53357,   1644.76599
   1373,        4537.,   1316.94556,   1665.93616
   1374,        4537.,   1362.35742,   1687.10632
   1375,        4537.,   1407.76941,   1708.27661
   1376,        4537.,   1453.18127,   1729.44678
   1377,        4537.,   1498.59314,   1750.61707
   1378,        4537.,   1544.00513,   1771.78723
   1379,        4537.,   1589.41699,    1792.9574
   1380,        4537.,   1634.82898,   1814.12769
   1381,        4537.,   1680.24084,   1835.29785
   1382,        4537.,   1725.65271,   1856.46814
   1383,        4537.,    1771.0647,   1877.63831
   1384,        4537.,   1816.47656,   1898.80847
   1385,        4537.,   1861.88855,   1919.97876
   1386,        4537.,   1907.30042,   1941.14893
   1387,        4537.,   1952.71228,   1962.31909
   1388,        4537.,   1998.12427,   1983.48938
   1389,        4537.,   2043.53613,   2004.65955
   1390,        4537.,     2088.948,   2025.82983
   1391,       13611.,   48.5081825,    915.40387
   1392,       13611.,   97.0163651,   903.807739
   1393,       13611.,   145.524551,   892.211609
   1394,       13611.,    194.03273,   880.615479
   1395,       13611.,   242.540909,   869.019348
   1396,       13611.,   291.049103,   857.423157
   1397,       13611.,   339.557281,   845.827026
   1398,       13611.,    388.06546,   834.230896
   1399,       13611.,   436.573639,   822.634766
   1400,       13611.,   485.081818,   811.038635
   1401,       13611.,   533.590027,   799.442505
   1402,       13611.,   582.098206,   787.846375
   1403,       13611.,   630.606384,   776.250244
   1404,       13611.,   679.114563,   764.654114
   1405,       13611.,   727.622742,   753.057983
   1406,       13611.,    776.13092,   741.461792
   1407,       13611.,   824.639099,   729.865662
   1408,       13611.,   873.147278,   718.269531
   1409,       13611.,   921.655457,   706.673401
   1410,       13611.,   970.163635,   695.077271
   1411,       13611.,   1018.67181,    683.48114
   1412,       13611.,   1067.18005,    671.88501
   1413,       13611.,   1115.68823,   660.288879
   1414,       13611.,   1164.19641,   648.692749
   1415,       13611.,   1212.70459,   637.096619
   1416,       13611.,   1261.21277,   625.500427
   1417,       13611.,   1309.72095,   613.904297
   1418,       13611.,   1358.22913,   602.308167
   1419,       13611.,    1406.7373,   590.712036
   1420,       13611.,   1455.24548,   579.115906
   1421,       13611.,   1503.75366,   567.519775
   1422,       13611.,   1552.26184,   555.923645
   1423,       13611.,   1600.77002,   544.327515
   1424,       13611.,    1649.2782,   532.731384
   1425,       13611.,   1697.78638,   521.135254
   1426,       13611.,   1746.29456,   509.539093
   1427,       13611.,   1794.80273,   497.942963
   1428,       13611.,   1843.31091,   486.346832
   1429,       13611.,   1891.81909,   474.750671
   1430,       13611.,   1940.32727,   463.154541
   1431,       13611.,   1988.83545,   451.558411
   1432,       13611.,   2037.34363,    439.96228
   1433,       13611.,   2085.85181,    428.36615
   1434,        9074.,   48.5081825,    915.40387
   1435,        9074.,   97.0163651,   903.807739
   1436,        9074.,   145.524551,   892.211609
   1437,        9074.,    194.03273,   880.615479
   1438,        9074.,   242.540909,   869.019348
   1439,        9074.,   291.049103,   857.423157
   1440,        9074.,   339.557281,   845.827026
   1441,        9074.,    388.06546,   834.230896
   1442,        9074.,   436.573639,   822.634766
   1443,        9074.,   485.081818,   811.038635
   1444,        9074.,   533.590027,   799.442505
   1445,        9074.,   582.098206,   787.846375
   1446,        9074.,   630.606384,   776.250244
   1447,        9074.,   679.114563,   764.654114
   1448,        9074.,   727.622742,   753.057983
   1449,        9074.,    776.13092,   741.461792
   1450,        9074.,   824.639099,   729.865662
   1451,        9074.,   873.147278,   718.269531
   1452,        9074.,   921.655457,   706.673401
   1453,        9074.,   970.163635,   695.077271
   1454,        9074.,   1018.67181,    683.48114
   1455,        9074.,   1067.18005,    671.88501
   1456,        9074.,   1115.68823,   660.288879
   1457,        9074.,   1164.19641,   648.692749
   1458,        9074.,   1212.70459,   637.096619
   1459,        9074.,   1261.21277,   625.500427
   1460,        9074.,   1309.72095,   613.904297
   1461,        9074.,   1358.22913,   602.308167
   1462,        9074.,    1406.7373,   590.712036
   1463,        9074.,   1455.24548,   579.115906
   1464,        9074.,   1503.75366,   567.519775
   1465,        9074.,   1552.26184,   555.923645
   1466,        9074.,   1600.77002,   544.327515
   1467,        9074.,    1649.2782,   532.731384
   1468,        9074.,   1697.78638,   521.135254
   1469,        9074.,   1746.29456,   509.539093
   1470,        9074.,   1794.80273,   497.942963
   1471,        9074.,   1843.31091,   486.346832
   1472,        9074.,   1891.81909,   474.750671
   1473,        9074.,   1940.32727,   463.154541
   1474,        9074.,   1988.83545,   451.558411
   1475,        9074.,   2037.34363,    439.96228
   1476,        9074.,   2085.85181,    428.36615
   1477,        4537.,   48.5081825,    915.40387
   1478,        4537.,   97.0163651,   903.807739
   1479,        4537.,   145.524551,   892.211609
   1480,        4537.,    194.03273,   880.615479
   1481,        4537.,   242.540909,   869.019348
   1482,        4537.,   291.049103,   857.423157
   1483,        4537.,   339.557281,   845.827026
   1484,        4537.,    388.06546,   834.230896
   1485,        4537.,   436.573639,   822.634766
   1486,        4537.,   485.081818,   811.038635
   1487,        4537.,   533.590027,   799.442505
   1488,        4537.,   582.098206,   787.846375
   1489,        4537.,   630.606384,   776.250244
   1490,        4537.,   679.114563,   764.654114
   1491,        4537.,   727.622742,   753.057983
   1492,        4537.,    776.13092,   741.461792
   1493,        4537.,   824.639099,   729.865662
   1494,        4537.,   873.147278,   718.269531
   1495,        4537.,   921.655457,   706.673401
   1496,        4537.,   970.163635,   695.077271
   1497,        4537.,   1018.67181,    683.48114
   1498,        4537.,   1067.18005,    671.88501
   1499,        4537.,   1115.68823,   660.288879
   1500,        4537.,   1164.19641,   648.692749
   1501,        4537.,   1212.70459,   637.096619
   1502,        4537.,   1261.21277,   625.500427
   1503,        4537.,   1309.72095,   613.904297
   1504,        4537.,   1358.22913,   602.308167
   1505,        4537.,    1406.7373,   590.712036
   1506,        4537.,   1455.24548,   579.115906
   1507,        4537.,   1503.75366,   567.519775
   1508,        4537.,   1552.26184,   555.923645
   1509,        4537.,   1600.77002,   544.327515
   1510,        4537.,    1649.2782,   532.731384
   1511,        4537.,   1697.78638,   521.135254
   1512,        4537.,   1746.29456,   509.539093
   1513,        4537.,   1794.80273,   497.942963
   1514,        4537.,   1843.31091,   486.346832
   1515,        4537.,   1891.81909,   474.750671
   1516,        4537.,   1940.32727,   463.154541
   1517,        4537.,   1988.83545,   451.558411
   1518,        4537.,   2037.34363,    439.96228
   1519,        4537.,   2085.85181,    428.36615
   1520,       13611.,   2134.36011,   466.170898
   1521,       13611.,   2134.36011,   515.571838
   1522,       13611.,   2134.36011,   564.972717
   1523,       13611.,   2134.36011,   614.373657
   1524,       13611.,   2134.36011,   663.774536
   1525,       13611.,   2134.36011,   713.175476
   1526,       13611.,   2134.36011,   762.576355
   1527,       13611.,   2134.36011,   811.977295
   1528,       13611.,   2134.36011,   861.378174
   1529,       13611.,   2134.36011,   910.779114
   1530,       13611.,   2134.36011,   960.179993
   1531,       13611.,   2134.36011,   1009.58093
   1532,       13611.,   2134.36011,   1058.98181
   1533,       13611.,   2134.36011,   1108.38269
   1534,       13611.,   2134.36011,   1157.78369
   1535,       13611.,   2134.36011,   1207.18457
   1536,       13611.,   2134.36011,   1256.58545
   1537,       13611.,   2134.36011,   1305.98633
   1538,       13611.,   2134.36011,   1355.38733
   1539,       13611.,   2134.36011,   1404.78821
   1540,       13611.,   2134.36011,   1454.18909
   1541,       13611.,   2134.36011,   1503.58997
   1542,       13611.,   2134.36011,   1552.99097
   1543,       13611.,   2134.36011,   1602.39185
   1544,       13611.,   2134.36011,   1651.79272
   1545,       13611.,   2134.36011,    1701.1936
   1546,       13611.,   2134.36011,    1750.5946
   1547,       13611.,   2134.36011,   1799.99548
   1548,       13611.,   2134.36011,   1849.39636
   1549,       13611.,   2134.36011,   1898.79724
   1550,       13611.,   2134.36011,   1948.19824
   1551,       13611.,   2134.36011,   1997.59912
   1552,       13611.,   2134.36011,   52.0962486
   1553,       13611.,   2134.36011,   104.192497
   1554,       13611.,   2134.36011,   156.288757
   1555,       13611.,   2134.36011,   208.384995
   1556,       13611.,   2134.36011,   260.481262
   1557,       13611.,   2134.36011,   312.577515
   1558,       13611.,   2134.36011,   364.673737
   1559,        9074.,   2134.36011,   466.170898
   1560,        9074.,   2134.36011,   515.571838
   1561,        9074.,   2134.36011,   564.972717
   1562,        9074.,   2134.36011,   614.373657
   1563,        9074.,   2134.36011,   663.774536
   1564,        9074.,   2134.36011,   713.175476
   1565,        9074.,   2134.36011,   762.576355
   1566,        9074.,   2134.36011,   811.977295
   1567,        9074.,   2134.36011,   861.378174
   1568,        9074.,   2134.36011,   910.779114
   1569,        9074.,   2134.36011,   960.179993
   1570,        9074.,   2134.36011,   1009.58093
   1571,        9074.,   2134.36011,   1058.98181
   1572,        9074.,   2134.36011,   1108.38269
   1573,        9074.,   2134.36011,   1157.78369
   1574,        9074.,   2134.36011,   1207.18457
   1575,        9074.,   2134.36011,   1256.58545
   1576,        9074.,   2134.36011,   1305.98633
   1577,        9074.,   2134.36011,   1355.38733
   1578,        9074.,   2134.36011,   1404.78821
   1579,        9074.,   2134.36011,   1454.18909
   1580,        9074.,   2134.36011,   1503.58997
   1581,        9074.,   2134.36011,   1552.99097
   1582,        9074.,   2134.36011,   1602.39185
   1583,        9074.,   2134.36011,   1651.79272
   1584,        9074.,   2134.36011,    1701.1936
   1585,        9074.,   2134.36011,    1750.5946
   1586,        9074.,   2134.36011,   1799.99548
   1587,        9074.,   2134.36011,   1849.39636
   1588,        9074.,   2134.36011,   1898.79724
   1589,        9074.,   2134.36011,   1948.19824
   1590,        9074.,   2134.36011,   1997.59912
   1591,        9074.,   2134.36011,   52.0962486
   1592,        9074.,   2134.36011,   104.192497
   1593,        9074.,   2134.36011,   156.288757
   1594,        9074.,   2134.36011,   208.384995
   1595,        9074.,   2134.36011,   260.481262
   1596,        9074.,   2134.36011,   312.577515
   1597,        9074.,   2134.36011,   364.673737
   1598,        4537.,   2134.36011,   466.170898
   1599,        4537.,   2134.36011,   515.571838
   1600,        4537.,   2134.36011,   564.972717
   1601,        4537.,   2134.36011,   614.373657
   1602,        4537.,   2134.36011,   663.774536
   1603,        4537.,   2134.36011,   713.175476
   1604,        4537.,   2134.36011,   762.576355
   1605,        4537.,   2134.36011,   811.977295
   1606,        4537.,   2134.36011,   861.378174
   1607,        4537.,   2134.36011,   910.779114
   1608,        4537.,   2134.36011,   960.179993
   1609,        4537.,   2134.36011,   1009.58093
   1610,        4537.,   2134.36011,   1058.98181
   1611,        4537.,   2134.36011,   1108.38269
   1612,        4537.,   2134.36011,   1157.78369
   1613,        4537.,   2134.36011,   1207.18457
   1614,        4537.,   2134.36011,   1256.58545
   1615,        4537.,   2134.36011,   1305.98633
   1616,        4537.,   2134.36011,   1355.38733
   1617,        4537.,   2134.36011,   1404.78821
   1618,        4537.,   2134.36011,   1454.18909
   1619,        4537.,   2134.36011,   1503.58997
   1620,        4537.,   2134.36011,   1552.99097
   1621,        4537.,   2134.36011,   1602.39185
   1622,        4537.,   2134.36011,   1651.79272
   1623,        4537.,   2134.36011,    1701.1936
   1624,        4537.,   2134.36011,    1750.5946
   1625,        4537.,   2134.36011,   1799.99548
   1626,        4537.,   2134.36011,   1849.39636
   1627,        4537.,   2134.36011,   1898.79724
   1628,        4537.,   2134.36011,   1948.19824
   1629,        4537.,   2134.36011,   1997.59912
   1630,        4537.,   2134.36011,   52.0962486
   1631,        4537.,   2134.36011,   104.192497
   1632,        4537.,   2134.36011,   156.288757
   1633,        4537.,   2134.36011,   208.384995
   1634,        4537.,   2134.36011,   260.481262
   1635,        4537.,   2134.36011,   312.577515
   1636,        4537.,   2134.36011,   364.673737
*Element, type=B31
1,  1, 81
2, 81, 82
3, 82, 83
4, 83, 84
5, 84, 85
6, 85, 86
7, 86, 87
8, 87,  2
 9,   3,  88
10,  88,  89
11,  89,  90
12,  90,  91
13,  91,  92
14,  92,  93
15,  93,  94
16,  94,  95
17,  95,  96
18,  96,  97
19,  97,  98
20,  98,  99
21,  99, 100
22, 100, 101
23, 101, 102
24, 102, 103
25, 103,   2
26,   4, 104
27, 104, 105
28, 105, 106
29, 106, 107
30, 107, 108
31, 108, 109
32, 109, 110
33, 110, 111
34, 111, 112
35, 112, 113
36, 113, 114
37, 114, 115
38, 115, 116
39, 116, 117
40, 117, 118
41, 118, 119
42, 119, 120
43, 120, 121
44, 121, 122
45, 122, 123
46, 123, 124
47, 124, 125
48, 125, 126
49, 126, 127
50, 127, 128
51, 128, 129
52, 129, 130
53, 130, 131
54, 131, 132
55, 132, 133
56, 133, 134
57, 134, 135
58, 135, 136
59, 136, 137
60, 137, 138
61, 138, 139
62, 139, 140
63, 140, 141
64, 141, 142
65, 142, 143
66, 143, 144
67, 144, 145
68, 145, 146
69, 146, 147
70, 147, 148
71, 148, 149
72, 149,   3
73,   5, 150
74, 150, 151
75, 151, 152
76, 152, 153
77, 153, 154
78, 154, 155
79, 155, 156
80, 156, 157
81, 157, 158
82, 158, 159
83, 159, 160
84, 160, 161
85, 161, 162
86, 162, 163
87, 163, 164
88, 164, 165
89, 165,   4
90,   6, 166
91, 166, 167
92, 167, 168
93, 168, 169
94, 169, 170
95, 170, 171
96, 171, 172
97, 172,   5
 98,   7, 173
 99, 173, 174
100, 174, 175
101, 175, 176
102, 176, 177
103, 177, 178
104, 178, 179
105, 179, 180
106, 180, 181
107, 181, 182
108, 182, 183
109, 183, 184
110, 184, 185
111, 185, 186
112, 186, 187
113, 187,   6
114,   8, 188
115, 188, 189
116, 189, 190
117, 190, 191
118, 191, 192
119, 192, 193
120, 193, 194
121, 194, 195
122, 195, 196
123, 196, 197
124, 197, 198
125, 198, 199
126, 199, 200
127, 200, 201
128, 201, 202
129, 202,   7
130,   9, 203
131, 203, 204
132, 204, 205
133, 205, 206
134, 206, 207
135, 207, 208
136, 208, 209
137, 209, 210
138, 210, 211
139, 211, 212
140, 212, 213
141, 213, 214
142, 214, 215
143, 215, 216
144, 216, 217
145, 217,   8
146,  10, 218
147, 218, 219
148, 219, 220
149, 220, 221
150, 221, 222
151, 222, 223
152, 223, 224
153, 224, 225
154, 225, 226
155, 226, 227
156, 227, 228
157, 228, 229
158, 229, 230
159, 230, 231
160, 231, 232
161, 232,   9
162,  11, 233
163, 233, 234
164, 234, 235
165, 235, 236
166, 236, 237
167, 237, 238
168, 238, 239
169, 239, 240
170, 240, 241
171, 241, 242
172, 242, 243
173, 243, 244
174, 244, 245
175, 245, 246
176, 246, 247
177, 247,  10
178,  12, 248
179, 248, 249
180, 249, 250
181, 250, 251
182, 251, 252
183, 252, 253
184, 253, 254
185, 254, 255
186, 255, 256
187, 256, 257
188, 257, 258
189, 258, 259
190, 259, 260
191, 260, 261
192, 261, 262
193, 262,  11
194,  13, 263
195, 263, 264
196, 264, 265
197, 265, 266
198, 266, 267
199, 267, 268
200, 268, 269
201, 269, 270
202, 270, 271
203, 271, 272
204, 272, 273
205, 273, 274
206, 274, 275
207, 275, 276
208, 276, 277
209, 277,  12
210,  14, 278
211, 278, 279
212, 279, 280
213, 280, 281
214, 281, 282
215, 282, 283
216, 283, 284
217, 284, 285
218, 285, 286
219, 286, 287
220, 287, 288
221, 288, 289
222, 289, 290
223, 290, 291
224, 291, 292
225, 292,  13
226,  15, 293
227, 293, 294
228, 294, 295
229, 295, 296
230, 296, 297
231, 297, 298
232, 298, 299
233, 299, 300
234, 300, 301
235, 301, 302
236, 302, 303
237, 303, 304
238, 304, 305
239, 305, 306
240, 306, 307
241, 307,  14
242,  16, 308
243, 308, 309
244, 309, 310
245, 310, 311
246, 311, 312
247, 312, 313
248, 313, 314
249, 314, 315
250, 315, 316
251, 316, 317
252, 317, 318
253, 318, 319
254, 319, 320
255, 320, 321
256, 321, 322
257, 322,  15
258,  17, 323
259, 323, 324
260, 324, 325
261, 325, 326
262, 326, 327
263, 327, 328
264, 328, 329
265, 329,  16
266,  18, 330
267, 330, 331
268, 331, 332
269, 332, 333
270, 333, 334
271, 334, 335
272, 335, 336
273, 336,  17
274,  19, 337
275, 337, 338
276, 338, 339
277, 339, 340
278, 340, 341
279, 341, 342
280, 342, 343
281, 343, 344
282, 344, 345
283, 345, 346
284, 346, 347
285, 347, 348
286, 348, 349
287, 349, 350
288, 350, 351
289, 351,  18
290,  20, 352
291, 352, 353
292, 353, 354
293, 354, 355
294, 355, 356
295, 356, 357
296, 357, 358
297, 358, 359
298, 359, 360
299, 360, 361
300, 361, 362
301, 362, 363
302, 363, 364
303, 364, 365
304, 365, 366
305, 366,  19
306,  21, 367
307, 367, 368
308, 368, 369
309, 369, 370
310, 370, 371
311, 371, 372
312, 372, 373
313, 373, 374
314, 374, 375
315, 375, 376
316, 376, 377
317, 377, 378
318, 378, 379
319, 379, 380
320, 380, 381
321, 381,  20
322,  22, 382
323, 382, 383
324, 383, 384
325, 384, 385
326, 385, 386
327, 386, 387
328, 387, 388
329, 388, 389
330, 389, 390
331, 390, 391
332, 391, 392
333, 392, 393
334, 393, 394
335, 394, 395
336, 395, 396
337, 396,  21
338,  23, 397
339, 397, 398
340, 398, 399
341, 399, 400
342, 400, 401
343, 401, 402
344, 402, 403
345, 403, 404
346, 404, 405
347, 405, 406
348, 406, 407
349, 407, 408
350, 408, 409
351, 409, 410
352, 410, 411
353, 411,  22
354,  24, 412
355, 412, 413
356, 413, 414
357, 414, 415
358, 415, 416
359, 416, 417
360, 417, 418
361, 418, 419
362, 419, 420
363, 420, 421
364, 421, 422
365, 422, 423
366, 423, 424
367, 424, 425
368, 425, 426
369, 426,  23
370,  25, 427
371, 427, 428
372, 428, 429
373, 429, 430
374, 430, 431
375, 431, 432
376, 432, 433
377, 433, 434
378, 434, 435
379, 435, 436
380, 436, 437
381, 437, 438
382, 438, 439
383, 439, 440
384, 440, 441
385, 441,  24
386,  26, 442
387, 442, 443
388, 443, 444
389, 444, 445
390, 445, 446
391, 446, 447
392, 447, 448
393, 448, 449
394, 449, 450
395, 450, 451
396, 451, 452
397, 452, 453
398, 453, 454
399, 454, 455
400, 455, 456
401, 456,  25
402,  27, 457
403, 457, 458
404, 458, 459
405, 459, 460
406, 460, 461
407, 461, 462
408, 462, 463
409, 463, 464
410, 464, 465
411, 465, 466
412, 466, 467
413, 467, 468
414, 468, 469
415, 469, 470
416, 470, 471
417, 471,  26
418,  28, 472
419, 472, 473
420, 473, 474
421, 474, 475
422, 475, 476
423, 476, 477
424, 477, 478
425, 478, 479
426, 479, 480
427, 480, 481
428, 481, 482
429, 482, 483
430, 483, 484
431, 484, 485
432, 485, 486
433, 486,  27
434,  29, 487
435, 487, 488
436, 488, 489
437, 489, 490
438, 490, 491
439, 491, 492
440, 492, 493
441, 493,  28
442,  29, 494
443, 494, 495
444, 495, 496
445, 496, 497
446, 497, 498
447, 498, 499
448, 499, 500
449, 500, 501
450, 501, 502
451, 502, 503
452, 503, 504
453, 504, 505
454, 505, 506
455, 506, 507
456, 507, 508
457, 508, 509
458, 509,  30
459,  31, 510
460, 510, 511
461, 511,  30
462,  32, 512
463, 512, 513
464, 513, 514
465, 514, 515
466, 515, 516
467, 516, 517
468, 517, 518
469, 518, 519
470, 519, 520
471, 520, 521
472, 521, 522
473, 522, 523
474, 523, 524
475, 524, 525
476, 525, 526
477, 526, 527
478, 527, 528
479, 528, 529
480, 529,  31
481,  33, 530
482, 530, 531
483, 531, 532
484, 532, 533
485, 533, 534
486, 534, 535
487, 535, 536
488, 536, 537
489, 537, 538
490, 538, 539
491, 539, 540
492, 540, 541
493, 541, 542
494, 542, 543
495, 543, 544
496, 544,   1
497,  34, 545
498, 545, 546
499, 546, 547
500, 547, 548
501, 548, 549
502, 549, 550
503, 550, 551
504, 551, 552
505, 552, 553
506, 553, 554
507, 554, 555
508, 555, 556
509, 556, 557
510, 557, 558
511, 558, 559
512, 559, 560
513, 560, 561
514, 561, 562
515, 562, 563
516, 563, 564
517, 564, 565
518, 565, 566
519, 566, 567
520, 567, 568
521, 568, 569
522, 569, 570
523, 570, 571
524, 571, 572
525, 572, 573
526, 573, 574
527, 574, 575
528, 575, 576
529, 576,   3
530,  35, 577
531, 577, 578
532, 578, 579
533, 579, 580
534, 580, 581
535, 581, 582
536, 582, 583
537, 583,  34
538,  36, 584
539, 584, 585
540, 585,   4
541,  37, 586
542, 586, 587
543, 587, 588
544, 588, 589
545, 589, 590
546, 590, 591
547, 591, 592
548, 592, 593
549, 593, 594
550, 594, 595
551, 595, 596
552, 596, 597
553, 597, 598
554, 598, 599
555, 599, 600
556, 600, 601
557, 601, 602
558, 602, 603
559, 603,  36
560,  11, 604
561, 604, 605
562, 605, 606
563, 606, 607
564, 607, 608
565, 608, 609
566, 609, 610
567, 610, 611
568, 611, 612
569, 612, 613
570, 613, 614
571, 614, 615
572, 615, 616
573, 616, 617
574, 617, 618
575, 618, 619
576, 619,  38
577,  17, 620
578, 620, 621
579, 621, 622
580, 622, 623
581, 623, 624
582, 624, 625
583, 625, 626
584, 626, 627
585, 627, 628
586, 628, 629
587, 629, 630
588, 630, 631
589, 631, 632
590, 632, 633
591, 633, 634
592, 634, 635
593, 635,  39
594,  23, 636
595, 636, 637
596, 637, 638
597, 638, 639
598, 639, 640
599, 640, 641
600, 641, 642
601, 642, 643
602, 643, 644
603, 644, 645
604, 645, 646
605, 646, 647
606, 647, 648
607, 648, 649
608, 649, 650
609, 650, 651
610, 651,  40
611,  30, 652
612, 652, 653
613, 653, 654
614, 654, 655
615, 655, 656
616, 656, 657
617, 657, 658
618, 658, 659
619, 659, 660
620, 660, 661
621, 661, 662
622, 662, 663
623, 663, 664
624, 664, 665
625, 665, 666
626, 666, 667
627, 667, 668
628, 668, 669
629, 669, 670
630, 670, 671
631, 671, 672
632, 672, 673
633, 673, 674
634, 674, 675
635, 675, 676
636, 676, 677
637, 677, 678
638, 678, 679
639, 679, 680
640, 680, 681
641, 681, 682
642, 682, 683
643, 683, 684
644, 684, 685
645, 685, 686
646, 686, 687
647, 687, 688
648, 688, 689
649, 689, 690
650, 690, 691
651, 691, 692
652, 692, 693
653, 693, 694
654, 694, 695
655, 695, 696
656, 696, 697
657, 697,  41
658,  31, 698
659, 698, 699
660, 699, 700
661, 700, 701
662, 701, 702
663, 702, 703
664, 703, 704
665, 704, 705
666, 705, 706
667, 706, 707
668, 707, 708
669, 708, 709
670, 709, 710
671, 710, 711
672, 711, 712
673, 712, 713
674, 713, 714
675, 714, 715
676, 715, 716
677, 716, 717
678, 717, 718
679, 718, 719
680, 719, 720
681, 720, 721
682, 721, 722
683, 722, 723
684, 723, 724
685, 724, 725
686, 725, 726
687, 726, 727
688, 727, 728
689, 728, 729
690, 729, 730
691, 730, 731
692, 731, 732
693, 732, 733
694, 733, 734
695, 734, 735
696, 735, 736
697, 736, 737
698, 737, 738
699, 738, 739
700, 739, 740
701, 740,  42
702,  43, 741
703, 741, 742
704, 742, 743
705, 743, 744
706, 744, 745
707, 745, 746
708, 746, 747
709, 747, 748
710, 748, 749
711, 749, 750
712, 750, 751
713, 751, 752
714, 752, 753
715, 753, 754
716, 754, 755
717, 755,  33
718,  44, 756
719, 756, 757
720, 757, 758
721, 758, 759
722, 759, 760
723, 760, 761
724, 761, 762
725, 762, 763
726, 763, 764
727, 764, 765
728, 765, 766
729, 766, 767
730, 767, 768
731, 768, 769
732, 769, 770
733, 770,  43
734,  45, 771
735, 771, 772
736, 772, 773
737, 773, 774
738, 774, 775
739, 775, 776
740, 776, 777
741, 777, 778
742, 778, 779
743, 779, 780
744, 780, 781
745, 781, 782
746, 782, 783
747, 783, 784
748, 784, 785
749, 785,  44
750,  46, 786
751, 786, 787
752, 787, 788
753, 788, 789
754, 789, 790
755, 790, 791
756, 791, 792
757, 792, 793
758, 793, 794
759, 794, 795
760, 795, 796
761, 796, 797
762, 797, 798
763, 798, 799
764, 799, 800
765, 800,  45
766,  47, 801
767, 801, 802
768, 802, 803
769, 803, 804
770, 804, 805
771, 805, 806
772, 806, 807
773, 807, 808
774, 808, 809
775, 809, 810
776, 810, 811
777, 811, 812
778, 812, 813
779, 813, 814
780, 814, 815
781, 815,  46
782,  48, 816
783, 816, 817
784, 817, 818
785, 818, 819
786, 819, 820
787, 820, 821
788, 821, 822
789, 822, 823
790, 823, 824
791, 824, 825
792, 825, 826
793, 826, 827
794, 827, 828
795, 828, 829
796, 829, 830
797, 830,  47
798,  49, 831
799, 831, 832
800, 832, 833
801, 833, 834
802, 834, 835
803, 835, 836
804, 836, 837
805, 837, 838
806, 838, 839
807, 839, 840
808, 840, 841
809, 841, 842
810, 842, 843
811, 843, 844
812, 844, 845
813, 845,  48
814,  50, 846
815, 846, 847
816, 847, 848
817, 848, 849
818, 849, 850
819, 850, 851
820, 851, 852
821, 852, 853
822, 853, 854
823, 854, 855
824, 855, 856
825, 856, 857
826, 857, 858
827, 858, 859
828, 859, 860
829, 860,  49
830,  51, 861
831, 861, 862
832, 862, 863
833, 863, 864
834, 864, 865
835, 865, 866
836, 866, 867
837, 867, 868
838, 868, 869
839, 869, 870
840, 870, 871
841, 871, 872
842, 872, 873
843, 873, 874
844, 874, 875
845, 875,  50
846,  52, 876
847, 876, 877
848, 877, 878
849, 878, 879
850, 879, 880
851, 880, 881
852, 881, 882
853, 882,  51
854,  53, 883
855, 883, 884
856, 884, 885
857, 885, 886
858, 886, 887
859, 887, 888
860, 888, 889
861, 889,  52
862,  54, 890
863, 890, 891
864, 891, 892
865, 892, 893
866, 893, 894
867, 894, 895
868, 895, 896
869, 896, 897
870, 897, 898
871, 898, 899
872, 899, 900
873, 900, 901
874, 901, 902
875, 902, 903
876, 903, 904
877, 904,  53
878,  55, 905
879, 905, 906
880, 906, 907
881, 907, 908
882, 908, 909
883, 909, 910
884, 910, 911
885, 911, 912
886, 912, 913
887, 913, 914
888, 914, 915
889, 915, 916
890, 916, 917
891, 917, 918
892, 918, 919
893, 919,  54
894,  56, 920
895, 920, 921
896, 921, 922
897, 922, 923
898, 923, 924
899, 924, 925
900, 925, 926
901, 926, 927
902, 927, 928
903, 928, 929
904, 929, 930
905, 930, 931
906, 931, 932
907, 932, 933
908, 933, 934
909, 934,  55
910,  57, 935
911, 935, 936
912, 936, 937
913, 937, 938
914, 938, 939
915, 939, 940
916, 940, 941
917, 941, 942
918, 942, 943
919, 943, 944
920, 944, 945
921, 945, 946
922, 946, 947
923, 947, 948
924, 948, 949
925, 949,  56
926,  58, 950
927, 950, 951
928, 951, 952
929, 952, 953
930, 953, 954
931, 954, 955
932, 955, 956
933, 956, 957
934, 957, 958
935, 958, 959
936, 959, 960
937, 960, 961
938, 961, 962
939, 962, 963
940, 963, 964
941, 964,  57
942,  59, 965
943, 965, 966
944, 966, 967
945, 967, 968
946, 968, 969
947, 969, 970
948, 970, 971
949, 971, 972
950, 972, 973
951, 973, 974
952, 974, 975
953, 975, 976
954, 976, 977
955, 977, 978
956, 978, 979
957, 979,  58
958,  60, 980
959, 980, 981
960, 981, 982
961, 982, 983
962, 983, 984
963, 984, 985
964, 985, 986
965, 986, 987
966, 987, 988
967, 988, 989
968, 989, 990
969, 990, 991
970, 991, 992
971, 992, 993
972, 993, 994
973, 994,  59
974,   61,  995
975,  995,  996
976,  996,  997
977,  997,  998
978,  998,  999
979,  999, 1000
980, 1000, 1001
981, 1001, 1002
982, 1002, 1003
983, 1003, 1004
984, 1004, 1005
985, 1005, 1006
986, 1006, 1007
987, 1007, 1008
988, 1008, 1009
989, 1009,   60
 990,   62, 1010
 991, 1010, 1011
 992, 1011, 1012
 993, 1012, 1013
 994, 1013, 1014
 995, 1014, 1015
 996, 1015, 1016
 997, 1016, 1017
 998, 1017, 1018
 999, 1018, 1019
1000, 1019, 1020
1001, 1020, 1021
1002, 1021, 1022
1003, 1022, 1023
1004, 1023, 1024
1005, 1024,   61
1006,   63, 1025
1007, 1025, 1026
1008, 1026, 1027
1009, 1027, 1028
1010, 1028, 1029
1011, 1029, 1030
1012, 1030, 1031
1013, 1031, 1032
1014, 1032, 1033
1015, 1033, 1034
1016, 1034, 1035
1017, 1035, 1036
1018, 1036, 1037
1019, 1037, 1038
1020, 1038, 1039
1021, 1039,   62
1022,   64, 1040
1023, 1040, 1041
1024, 1041, 1042
1025, 1042, 1043
1026, 1043, 1044
1027, 1044, 1045
1028, 1045, 1046
1029, 1046,   63
1030,   41, 1047
1031, 1047, 1048
1032, 1048, 1049
1033, 1049, 1050
1034, 1050, 1051
1035, 1051, 1052
1036, 1052, 1053
1037, 1053, 1054
1038, 1054, 1055
1039, 1055, 1056
1040, 1056, 1057
1041, 1057, 1058
1042, 1058, 1059
1043, 1059, 1060
1044, 1060, 1061
1045, 1061, 1062
1046, 1062,   64
1047,   36, 1063
1048, 1063, 1064
1049, 1064, 1065
1050, 1065, 1066
1051, 1066, 1067
1052, 1067, 1068
1053, 1068, 1069
1054, 1069, 1070
1055, 1070, 1071
1056, 1071, 1072
1057, 1072, 1073
1058, 1073, 1074
1059, 1074, 1075
1060, 1075, 1076
1061, 1076, 1077
1062, 1077, 1078
1063, 1078, 1079
1064, 1079, 1080
1065, 1080, 1081
1066, 1081, 1082
1067, 1082, 1083
1068, 1083, 1084
1069, 1084, 1085
1070, 1085, 1086
1071, 1086, 1087
1072, 1087, 1088
1073, 1088, 1089
1074, 1089, 1090
1075, 1090, 1091
1076, 1091, 1092
1077, 1092, 1093
1078, 1093, 1094
1079, 1094, 1095
1080, 1095, 1096
1081, 1096, 1097
1082, 1097, 1098
1083, 1098, 1099
1084, 1099, 1100
1085, 1100, 1101
1086, 1101, 1102
1087, 1102, 1103
1088, 1103, 1104
1089, 1104, 1105
1090, 1105,   34
1091,   65, 1106
1092, 1106, 1107
1093, 1107,   38
1094,   66, 1108
1095, 1108, 1109
1096, 1109, 1110
1097, 1110, 1111
1098, 1111, 1112
1099, 1112, 1113
1100, 1113, 1114
1101, 1114, 1115
1102, 1115, 1116
1103, 1116, 1117
1104, 1117, 1118
1105, 1118, 1119
1106, 1119, 1120
1107, 1120, 1121
1108, 1121, 1122
1109, 1122, 1123
1110, 1123, 1124
1111, 1124, 1125
1112, 1125,   65
1113,   67, 1126
1114, 1126, 1127
1115, 1127,   39
1116,   68, 1128
1117, 1128, 1129
1118, 1129, 1130
1119, 1130, 1131
1120, 1131, 1132
1121, 1132, 1133
1122, 1133, 1134
1123, 1134, 1135
1124, 1135, 1136
1125, 1136, 1137
1126, 1137, 1138
1127, 1138, 1139
1128, 1139, 1140
1129, 1140, 1141
1130, 1141, 1142
1131, 1142, 1143
1132, 1143, 1144
1133, 1144, 1145
1134, 1145,   67
1135,   69, 1146
1136, 1146, 1147
1137, 1147,   40
1138,   70, 1148
1139, 1148, 1149
1140, 1149, 1150
1141, 1150, 1151
1142, 1151, 1152
1143, 1152, 1153
1144, 1153, 1154
1145, 1154, 1155
1146, 1155, 1156
1147, 1156, 1157
1148, 1157, 1158
1149, 1158, 1159
1150, 1159, 1160
1151, 1160, 1161
1152, 1161, 1162
1153, 1162, 1163
1154, 1163, 1164
1155, 1164, 1165
1156, 1165,   69
1157,   42, 1166
1158, 1166, 1167
1159, 1167, 1168
1160, 1168, 1169
1161, 1169, 1170
1162, 1170, 1171
1163, 1171, 1172
1164, 1172, 1173
1165, 1173, 1174
1166, 1174, 1175
1167, 1175, 1176
1168, 1176, 1177
1169, 1177, 1178
1170, 1178, 1179
1171, 1179, 1180
1172, 1180, 1181
1173, 1181, 1182
1174, 1182, 1183
1175, 1183, 1184
1176, 1184, 1185
1177, 1185, 1186
1178, 1186, 1187
1179, 1187, 1188
1180, 1188, 1189
1181, 1189, 1190
1182, 1190, 1191
1183, 1191, 1192
1184, 1192, 1193
1185, 1193, 1194
1186, 1194, 1195
1187, 1195, 1196
1188, 1196, 1197
1189, 1197,   41
1190,   71, 1198
1191, 1198, 1199
1192, 1199, 1200
1193, 1200, 1201
1194, 1201, 1202
1195, 1202, 1203
1196, 1203, 1204
1197, 1204,   42
1198,   72, 1205
1199, 1205, 1206
1200, 1206, 1207
1201, 1207, 1208
1202, 1208, 1209
1203, 1209, 1210
1204, 1210, 1211
1205, 1211, 1212
1206, 1212, 1213
1207, 1213, 1214
1208, 1214, 1215
1209, 1215, 1216
1210, 1216, 1217
1211, 1217, 1218
1212, 1218, 1219
1213, 1219, 1220
1214, 1220,   46
1215,   38, 1221
1216, 1221, 1222
1217, 1222, 1223
1218, 1223, 1224
1219, 1224, 1225
1220, 1225, 1226
1221, 1226, 1227
1222, 1227, 1228
1223, 1228, 1229
1224, 1229, 1230
1225, 1230, 1231
1226, 1231, 1232
1227, 1232, 1233
1228, 1233, 1234
1229, 1234, 1235
1230, 1235, 1236
1231, 1236, 1237
1232, 1237, 1238
1233, 1238, 1239
1234, 1239, 1240
1235, 1240, 1241
1236, 1241, 1242
1237, 1242, 1243
1238, 1243, 1244
1239, 1244, 1245
1240, 1245, 1246
1241, 1246, 1247
1242, 1247, 1248
1243, 1248, 1249
1244, 1249, 1250
1245, 1250, 1251
1246, 1251, 1252
1247, 1252, 1253
1248, 1253, 1254
1249, 1254, 1255
1250, 1255, 1256
1251, 1256, 1257
1252, 1257, 1258
1253, 1258, 1259
1254, 1259, 1260
1255, 1260, 1261
1256, 1261, 1262
1257, 1262, 1263
1258, 1263, 1264
1259, 1264, 1265
1260, 1265, 1266
1261, 1266,   72
1262,   73, 1267
1263, 1267, 1268
1264, 1268, 1269
1265, 1269, 1270
1266, 1270, 1271
1267, 1271, 1272
1268, 1272, 1273
1269, 1273, 1274
1270, 1274, 1275
1271, 1275, 1276
1272, 1276, 1277
1273, 1277, 1278
1274, 1278, 1279
1275, 1279, 1280
1276, 1280, 1281
1277, 1281, 1282
1278, 1282,   52
1279,   39, 1283
1280, 1283, 1284
1281, 1284, 1285
1282, 1285, 1286
1283, 1286, 1287
1284, 1287, 1288
1285, 1288, 1289
1286, 1289, 1290
1287, 1290, 1291
1288, 1291, 1292
1289, 1292, 1293
1290, 1293, 1294
1291, 1294, 1295
1292, 1295, 1296
1293, 1296, 1297
1294, 1297, 1298
1295, 1298, 1299
1296, 1299, 1300
1297, 1300, 1301
1298, 1301, 1302
1299, 1302, 1303
1300, 1303, 1304
1301, 1304, 1305
1302, 1305, 1306
1303, 1306, 1307
1304, 1307, 1308
1305, 1308, 1309
1306, 1309, 1310
1307, 1310, 1311
1308, 1311, 1312
1309, 1312, 1313
1310, 1313, 1314
1311, 1314, 1315
1312, 1315, 1316
1313, 1316, 1317
1314, 1317, 1318
1315, 1318, 1319
1316, 1319, 1320
1317, 1320, 1321
1318, 1321, 1322
1319, 1322, 1323
1320, 1323, 1324
1321, 1324, 1325
1322, 1325, 1326
1323, 1326, 1327
1324, 1327, 1328
1325, 1328,   73
1326,   74, 1329
1327, 1329, 1330
1328, 1330, 1331
1329, 1331, 1332
1330, 1332, 1333
1331, 1333, 1334
1332, 1334, 1335
1333, 1335, 1336
1334, 1336, 1337
1335, 1337, 1338
1336, 1338, 1339
1337, 1339, 1340
1338, 1340, 1341
1339, 1341, 1342
1340, 1342, 1343
1341, 1343, 1344
1342, 1344,   58
1343,   40, 1345
1344, 1345, 1346
1345, 1346, 1347
1346, 1347, 1348
1347, 1348, 1349
1348, 1349, 1350
1349, 1350, 1351
1350, 1351, 1352
1351, 1352, 1353
1352, 1353, 1354
1353, 1354, 1355
1354, 1355, 1356
1355, 1356, 1357
1356, 1357, 1358
1357, 1358, 1359
1358, 1359, 1360
1359, 1360, 1361
1360, 1361, 1362
1361, 1362, 1363
1362, 1363, 1364
1363, 1364, 1365
1364, 1365, 1366
1365, 1366, 1367
1366, 1367, 1368
1367, 1368, 1369
1368, 1369, 1370
1369, 1370, 1371
1370, 1371, 1372
1371, 1372, 1373
1372, 1373, 1374
1373, 1374, 1375
1374, 1375, 1376
1375, 1376, 1377
1376, 1377, 1378
1377, 1378, 1379
1378, 1379, 1380
1379, 1380, 1381
1380, 1381, 1382
1381, 1382, 1383
1382, 1383, 1384
1383, 1384, 1385
1384, 1385, 1386
1385, 1386, 1387
1386, 1387, 1388
1387, 1388, 1389
1388, 1389, 1390
1389, 1390,   74
1390,   65, 1391
1391, 1391, 1392
1392, 1392, 1393
1393, 1393, 1394
1394, 1394, 1395
1395, 1395, 1396
1396, 1396, 1397
1397, 1397, 1398
1398, 1398, 1399
1399, 1399, 1400
1400, 1400, 1401
1401, 1401, 1402
1402, 1402, 1403
1403, 1403, 1404
1404, 1404, 1405
1405, 1405, 1406
1406, 1406, 1407
1407, 1407, 1408
1408, 1408, 1409
1409, 1409, 1410
1410, 1410, 1411
1411, 1411, 1412
1412, 1412, 1413
1413, 1413, 1414
1414, 1414, 1415
1415, 1415, 1416
1416, 1416, 1417
1417, 1417, 1418
1418, 1418, 1419
1419, 1419, 1420
1420, 1420, 1421
1421, 1421, 1422
1422, 1422, 1423
1423, 1423, 1424
1424, 1424, 1425
1425, 1425, 1426
1426, 1426, 1427
1427, 1427, 1428
1428, 1428, 1429
1429, 1429, 1430
1430, 1430, 1431
1431, 1431, 1432
1432, 1432, 1433
1433, 1433,   75
1434,   67, 1434
1435, 1434, 1435
1436, 1435, 1436
1437, 1436, 1437
1438, 1437, 1438
1439, 1438, 1439
1440, 1439, 1440
1441, 1440, 1441
1442, 1441, 1442
1443, 1442, 1443
1444, 1443, 1444
1445, 1444, 1445
1446, 1445, 1446
1447, 1446, 1447
1448, 1447, 1448
1449, 1448, 1449
1450, 1449, 1450
1451, 1450, 1451
1452, 1451, 1452
1453, 1452, 1453
1454, 1453, 1454
1455, 1454, 1455
1456, 1455, 1456
1457, 1456, 1457
1458, 1457, 1458
1459, 1458, 1459
1460, 1459, 1460
1461, 1460, 1461
1462, 1461, 1462
1463, 1462, 1463
1464, 1463, 1464
1465, 1464, 1465
1466, 1465, 1466
1467, 1466, 1467
1468, 1467, 1468
1469, 1468, 1469
1470, 1469, 1470
1471, 1470, 1471
1472, 1471, 1472
1473, 1472, 1473
1474, 1473, 1474
1475, 1474, 1475
1476, 1475, 1476
1477, 1476,   76
1478,   69, 1477
1479, 1477, 1478
1480, 1478, 1479
1481, 1479, 1480
1482, 1480, 1481
1483, 1481, 1482
1484, 1482, 1483
1485, 1483, 1484
1486, 1484, 1485
1487, 1485, 1486
1488, 1486, 1487
1489, 1487, 1488
1490, 1488, 1489
1491, 1489, 1490
1492, 1490, 1491
1493, 1491, 1492
1494, 1492, 1493
1495, 1493, 1494
1496, 1494, 1495
1497, 1495, 1496
1498, 1496, 1497
1499, 1497, 1498
1500, 1498, 1499
1501, 1499, 1500
1502, 1500, 1501
1503, 1501, 1502
1504, 1502, 1503
1505, 1503, 1504
1506, 1504, 1505
1507, 1505, 1506
1508, 1506, 1507
1509, 1507, 1508
1510, 1508, 1509
1511, 1509, 1510
1512, 1510, 1511
1513, 1511, 1512
1514, 1512, 1513
1515, 1513, 1514
1516, 1514, 1515
1517, 1515, 1516
1518, 1516, 1517
1519, 1517, 1518
1520, 1518, 1519
1521, 1519,   77
1522,   75, 1520
1523, 1520, 1521
1524, 1521, 1522
1525, 1522, 1523
1526, 1523, 1524
1527, 1524, 1525
1528, 1525, 1526
1529, 1526, 1527
1530, 1527, 1528
1531, 1528, 1529
1532, 1529, 1530
1533, 1530, 1531
1534, 1531, 1532
1535, 1532, 1533
1536, 1533, 1534
1537, 1534, 1535
1538, 1535, 1536
1539, 1536, 1537
1540, 1537, 1538
1541, 1538, 1539
1542, 1539, 1540
1543, 1540, 1541
1544, 1541, 1542
1545, 1542, 1543
1546, 1543, 1544
1547, 1544, 1545
1548, 1545, 1546
1549, 1546, 1547
1550, 1547, 1548
1551, 1548, 1549
1552, 1549, 1550
1553, 1550, 1551
1554, 1551,   72
1555,   78, 1552
1556, 1552, 1553
1557, 1553, 1554
1558, 1554, 1555
1559, 1555, 1556
1560, 1556, 1557
1561, 1557, 1558
1562, 1558,   75
1563,   76, 1559
1564, 1559, 1560
1565, 1560, 1561
1566, 1561, 1562
1567, 1562, 1563
1568, 1563, 1564
1569, 1564, 1565
1570, 1565, 1566
1571, 1566, 1567
1572, 1567, 1568
1573, 1568, 1569
1574, 1569, 1570
1575, 1570, 1571
1576, 1571, 1572
1577, 1572, 1573
1578, 1573, 1574
1579, 1574, 1575
1580, 1575, 1576
1581, 1576, 1577
1582, 1577, 1578
1583, 1578, 1579
1584, 1579, 1580
1585, 1580, 1581
1586, 1581, 1582
1587, 1582, 1583
1588, 1583, 1584
1589, 1584, 1585
1590, 1585, 1586
1591, 1586, 1587
1592, 1587, 1588
1593, 1588, 1589
1594, 1589, 1590
1595, 1590,   73
1596,   79, 1591
1597, 1591, 1592
1598, 1592, 1593
1599, 1593, 1594
1600, 1594, 1595
1601, 1595, 1596
1602, 1596, 1597
1603, 1597,   76
1604,   77, 1598
1605, 1598, 1599
1606, 1599, 1600
1607, 1600, 1601
1608, 1601, 1602
1609, 1602, 1603
1610, 1603, 1604
1611, 1604, 1605
1612, 1605, 1606
1613, 1606, 1607
1614, 1607, 1608
1615, 1608, 1609
1616, 1609, 1610
1617, 1610, 1611
1618, 1611, 1612
1619, 1612, 1613
1620, 1613, 1614
1621, 1614, 1615
1622, 1615, 1616
1623, 1616, 1617
1624, 1617, 1618
1625, 1618, 1619
1626, 1619, 1620
1627, 1620, 1621
1628, 1621, 1622
1629, 1622, 1623
1630, 1623, 1624
1631, 1624, 1625
1632, 1625, 1626
1633, 1626, 1627
1634, 1627, 1628
1635, 1628, 1629
1636, 1629,   74
1637,   80, 1630
1638, 1630, 1631
1639, 1631, 1632
1640, 1632, 1633
1641, 1633, 1634
1642, 1634, 1635
1643, 1635, 1636
1644, 1636,   77
*Nset, nset=P2
    2,    3,    4,    5,   11,   17,   23,   29,   30,   38,   39,   40,   41,   46,   52,   58
   64,   72,   73,   74,   88,   89,   90,   91,   92,   93,   94,   95,   96,   97,   98,   99
  100,  101,  102,  103,  104,  105,  106,  107,  108,  109,  110,  111,  112,  113,  114,  115
  116,  117,  118,  119,  120,  121,  122,  123,  124,  125,  126,  127,  128,  129,  130,  131
  132,  133,  134,  135,  136,  137,  138,  139,  140,  141,  142,  143,  144,  145,  146,  147
  148,  149,  150,  151,  152,  153,  154,  155,  156,  157,  158,  159,  160,  161,  162,  163
  164,  165,  494,  495,  496,  497,  498,  499,  500,  501,  502,  503,  504,  505,  506,  507
  508,  509,  604,  605,  606,  607,  608,  609,  610,  611,  612,  613,  614,  615,  616,  617
  618,  619,  620,  621,  622,  623,  624,  625,  626,  627,  628,  629,  630,  631,  632,  633
  634,  635,  636,  637,  638,  639,  640,  641,  642,  643,  644,  645,  646,  647,  648,  649
  650,  651,  652,  653,  654,  655,  656,  657,  658,  659,  660,  661,  662,  663,  664,  665
  666,  667,  668,  669,  670,  671,  672,  673,  674,  675,  676,  677,  678,  679,  680,  681
  682,  683,  684,  685,  686,  687,  688,  689,  690,  691,  692,  693,  694,  695,  696,  697
 1047, 1048, 1049, 1050, 1051, 1052, 1053, 1054, 1055, 1056, 1057, 1058, 1059, 1060, 1061, 1062
 1205, 1206, 1207, 1208, 1209, 1210, 1211, 1212, 1213, 1214, 1215, 1216, 1217, 1218, 1219, 1220
 1221, 1222, 1223, 1224, 1225, 1226, 1227, 1228, 1229, 1230, 1231, 1232, 1233, 1234, 1235, 1236
 1237, 1238, 1239, 1240, 1241, 1242, 1243, 1244, 1245, 1246, 1247, 1248, 1249, 1250, 1251, 1252
 1253, 1254, 1255, 1256, 1257, 1258, 1259, 1260, 1261, 1262, 1263, 1264, 1265, 1266, 1267, 1268
 1269, 1270, 1271, 1272, 1273, 1274, 1275, 1276, 1277, 1278, 1279, 1280, 1281, 1282, 1283, 1284
 1285, 1286, 1287, 1288, 1289, 1290, 1291, 1292, 1293, 1294, 1295, 1296, 1297, 1298, 1299, 1300
 1301, 1302, 1303, 1304, 1305, 1306, 1307, 1308, 1309, 1310, 1311, 1312, 1313, 1314, 1315, 1316
 1317, 1318, 1319, 1320, 1321, 1322, 1323, 1324, 1325, 1326, 1327, 1328, 1329, 1330, 1331, 1332
 1333, 1334, 1335, 1336, 1337, 1338, 1339, 1340, 1341, 1342, 1343, 1344, 1345, 1346, 1347, 1348
 1349, 1350, 1351, 1352, 1353, 1354, 1355, 1356, 1357, 1358, 1359, 1360, 1361, 1362, 1363, 1364
 1365, 1366, 1367, 1368, 1369, 1370, 1371, 1372, 1373, 1374, 1375, 1376, 1377, 1378, 1379, 1380
 1381, 1382, 1383, 1384, 1385, 1386, 1387, 1388, 1389, 1390
*Elset, elset=P2
    9,   10,   11,   12,   13,   14,   15,   16,   17,   18,   19,   20,   21,   22,   23,   24
   25,   26,   27,   28,   29,   30,   31,   32,   33,   34,   35,   36,   37,   38,   39,   40
   41,   42,   43,   44,   45,   46,   47,   48,   49,   50,   51,   52,   53,   54,   55,   56
   57,   58,   59,   60,   61,   62,   63,   64,   65,   66,   67,   68,   69,   70,   71,   72
   73,   74,   75,   76,   77,   78,   79,   80,   81,   82,   83,   84,   85,   86,   87,   88
   89,  442,  443,  444,  445,  446,  447,  448,  449,  450,  451,  452,  453,  454,  455,  456
  457,  458,  560,  561,  562,  563,  564,  565,  566,  567,  568,  569,  570,  571,  572,  573
  574,  575,  576,  577,  578,  579,  580,  581,  582,  583,  584,  585,  586,  587,  588,  589
  590,  591,  592,  593,  594,  595,  596,  597,  598,  599,  600,  601,  602,  603,  604,  605
  606,  607,  608,  609,  610,  611,  612,  613,  614,  615,  616,  617,  618,  619,  620,  621
  622,  623,  624,  625,  626,  627,  628,  629,  630,  631,  632,  633,  634,  635,  636,  637
  638,  639,  640,  641,  642,  643,  644,  645,  646,  647,  648,  649,  650,  651,  652,  653
  654,  655,  656,  657, 1030, 1031, 1032, 1033, 1034, 1035, 1036, 1037, 1038, 1039, 1040, 1041
 1042, 1043, 1044, 1045, 1046, 1198, 1199, 1200, 1201, 1202, 1203, 1204, 1205, 1206, 1207, 1208
 1209, 1210, 1211, 1212, 1213, 1214, 1215, 1216, 1217, 1218, 1219, 1220, 1221, 1222, 1223, 1224
 1225, 1226, 1227, 1228, 1229, 1230, 1231, 1232, 1233, 1234, 1235, 1236, 1237, 1238, 1239, 1240
 1241, 1242, 1243, 1244, 1245, 1246, 1247, 1248, 1249, 1250, 1251, 1252, 1253, 1254, 1255, 1256
 1257, 1258, 1259, 1260, 1261, 1262, 1263, 1264, 1265, 1266, 1267, 1268, 1269, 1270, 1271, 1272
 1273, 1274, 1275, 1276, 1277, 1278, 1279, 1280, 1281, 1282, 1283, 1284, 1285, 1286, 1287, 1288
 1289, 1290, 1291, 1292, 1293, 1294, 1295, 1296, 1297, 1298, 1299, 1300, 1301, 1302, 1303, 1304
 1305, 1306, 1307, 1308, 1309, 1310, 1311, 1312, 1313, 1314, 1315, 1316, 1317, 1318, 1319, 1320
 1321, 1322, 1323, 1324, 1325, 1326, 1327, 1328, 1329, 1330, 1331, 1332, 1333, 1334, 1335, 1336
 1337, 1338, 1339, 1340, 1341, 1342, 1343, 1344, 1345, 1346, 1347, 1348, 1349, 1350, 1351, 1352
 1353, 1354, 1355, 1356, 1357, 1358, 1359, 1360, 1361, 1362, 1363, 1364, 1365, 1366, 1367, 1368
 1369, 1370, 1371, 1372, 1373, 1374, 1375, 1376, 1377, 1378, 1379, 1380, 1381, 1382, 1383, 1384
 1385, 1386, 1387, 1388, 1389
*Nset, nset=P3
    4,   30,   31,   32,   36,   37,   38,   39,   40,   65,   66,   67,   68,   69,   70,  510
  511,  512,  513,  514,  515,  516,  517,  518,  519,  520,  521,  522,  523,  524,  525,  526
  527,  528,  529,  584,  585,  586,  587,  588,  589,  590,  591,  592,  593,  594,  595,  596
  597,  598,  599,  600,  601,  602,  603, 1106, 1107, 1108, 1109, 1110, 1111, 1112, 1113, 1114
 1115, 1116, 1117, 1118, 1119, 1120, 1121, 1122, 1123, 1124, 1125, 1126, 1127, 1128, 1129, 1130
 1131, 1132, 1133, 1134, 1135, 1136, 1137, 1138, 1139, 1140, 1141, 1142, 1143, 1144, 1145, 1146
 1147, 1148, 1149, 1150, 1151, 1152, 1153, 1154, 1155, 1156, 1157, 1158, 1159, 1160, 1161, 1162
 1163, 1164, 1165
*Elset, elset=P3
  459,  460,  461,  462,  463,  464,  465,  466,  467,  468,  469,  470,  471,  472,  473,  474
  475,  476,  477,  478,  479,  480,  538,  539,  540,  541,  542,  543,  544,  545,  546,  547
  548,  549,  550,  551,  552,  553,  554,  555,  556,  557,  558,  559, 1091, 1092, 1093, 1094
 1095, 1096, 1097, 1098, 1099, 1100, 1101, 1102, 1103, 1104, 1105, 1106, 1107, 1108, 1109, 1110
 1111, 1112, 1113, 1114, 1115, 1116, 1117, 1118, 1119, 1120, 1121, 1122, 1123, 1124, 1125, 1126
 1127, 1128, 1129, 1130, 1131, 1132, 1133, 1134, 1135, 1136, 1137, 1138, 1139, 1140, 1141, 1142
 1143, 1144, 1145, 1146, 1147, 1148, 1149, 1150, 1151, 1152, 1153, 1154, 1155, 1156
*Nset, nset=P4
    3,   34,   35,   41,   42,   71,   72,   73,   74,   75,   76,   77,   78,   79,   80,  545
  546,  547,  548,  549,  550,  551,  552,  553,  554,  555,  556,  557,  558,  559,  560,  561
  562,  563,  564,  565,  566,  567,  568,  569,  570,  571,  572,  573,  574,  575,  576,  577
  578,  579,  580,  581,  582,  583, 1166, 1167, 1168, 1169, 1170, 1171, 1172, 1173, 1174, 1175
 1176, 1177, 1178, 1179, 1180, 1181, 1182, 1183, 1184, 1185, 1186, 1187, 1188, 1189, 1190, 1191
 1192, 1193, 1194, 1195, 1196, 1197, 1198, 1199, 1200, 1201, 1202, 1203, 1204, 1520, 1521, 1522
 1523, 1524, 1525, 1526, 1527, 1528, 1529, 1530, 1531, 1532, 1533, 1534, 1535, 1536, 1537, 1538
 1539, 1540, 1541, 1542, 1543, 1544, 1545, 1546, 1547, 1548, 1549, 1550, 1551, 1552, 1553, 1554
 1555, 1556, 1557, 1558, 1559, 1560, 1561, 1562, 1563, 1564, 1565, 1566, 1567, 1568, 1569, 1570
 1571, 1572, 1573, 1574, 1575, 1576, 1577, 1578, 1579, 1580, 1581, 1582, 1583, 1584, 1585, 1586
 1587, 1588, 1589, 1590, 1591, 1592, 1593, 1594, 1595, 1596, 1597, 1598, 1599, 1600, 1601, 1602
 1603, 1604, 1605, 1606, 1607, 1608, 1609, 1610, 1611, 1612, 1613, 1614, 1615, 1616, 1617, 1618
 1619, 1620, 1621, 1622, 1623, 1624, 1625, 1626, 1627, 1628, 1629, 1630, 1631, 1632, 1633, 1634
 1635, 1636
*Elset, elset=P4
  497,  498,  499,  500,  501,  502,  503,  504,  505,  506,  507,  508,  509,  510,  511,  512
  513,  514,  515,  516,  517,  518,  519,  520,  521,  522,  523,  524,  525,  526,  527,  528
  529,  530,  531,  532,  533,  534,  535,  536,  537, 1157, 1158, 1159, 1160, 1161, 1162, 1163
 1164, 1165, 1166, 1167, 1168, 1169, 1170, 1171, 1172, 1173, 1174, 1175, 1176, 1177, 1178, 1179
 1180, 1181, 1182, 1183, 1184, 1185, 1186, 1187, 1188, 1189, 1190, 1191, 1192, 1193, 1194, 1195
 1196, 1197, 1522, 1523, 1524, 1525, 1526, 1527, 1528, 1529, 1530, 1531, 1532, 1533, 1534, 1535
 1536, 1537, 1538, 1539, 1540, 1541, 1542, 1543, 1544, 1545, 1546, 1547, 1548, 1549, 1550, 1551
 1552, 1553, 1554, 1555, 1556, 1557, 1558, 1559, 1560, 1561, 1562, 1563, 1564, 1565, 1566, 1567
 1568, 1569, 1570, 1571, 1572, 1573, 1574, 1575, 1576, 1577, 1578, 1579, 1580, 1581, 1582, 1583
 1584, 1585, 1586, 1587, 1588, 1589, 1590, 1591, 1592, 1593, 1594, 1595, 1596, 1597, 1598, 1599
 1600, 1601, 1602, 1603, 1604, 1605, 1606, 1607, 1608, 1609, 1610, 1611, 1612, 1613, 1614, 1615
 1616, 1617, 1618, 1619, 1620, 1621, 1622, 1623, 1624, 1625, 1626, 1627, 1628, 1629, 1630, 1631
 1632, 1633, 1634, 1635, 1636, 1637, 1638, 1639, 1640, 1641, 1642, 1643, 1644
*Nset, nset=P5
    1,    2,    5,    6,    7,    8,    9,   10,   11,   12,   13,   14,   15,   16,   17,   18
   19,   20,   21,   22,   23,   24,   25,   26,   27,   28,   29,   33,   43,   44,   45,   46
   47,   48,   49,   50,   51,   52,   53,   54,   55,   56,   57,   58,   59,   60,   61,   62
   63,   64,   81,   82,   83,   84,   85,   86,   87,  166,  167,  168,  169,  170,  171,  172
  173,  174,  175,  176,  177,  178,  179,  180,  181,  182,  183,  184,  185,  186,  187,  188
  189,  190,  191,  192,  193,  194,  195,  196,  197,  198,  199,  200,  201,  202,  203,  204
  205,  206,  207,  208,  209,  210,  211,  212,  213,  214,  215,  216,  217,  218,  219,  220
  221,  222,  223,  224,  225,  226,  227,  228,  229,  230,  231,  232,  233,  234,  235,  236
  237,  238,  239,  240,  241,  242,  243,  244,  245,  246,  247,  248,  249,  250,  251,  252
  253,  254,  255,  256,  257,  258,  259,  260,  261,  262,  263,  264,  265,  266,  267,  268
  269,  270,  271,  272,  273,  274,  275,  276,  277,  278,  279,  280,  281,  282,  283,  284
  285,  286,  287,  288,  289,  290,  291,  292,  293,  294,  295,  296,  297,  298,  299,  300
  301,  302,  303,  304,  305,  306,  307,  308,  309,  310,  311,  312,  313,  314,  315,  316
  317,  318,  319,  320,  321,  322,  323,  324,  325,  326,  327,  328,  329,  330,  331,  332
  333,  334,  335,  336,  337,  338,  339,  340,  341,  342,  343,  344,  345,  346,  347,  348
  349,  350,  351,  352,  353,  354,  355,  356,  357,  358,  359,  360,  361,  362,  363,  364
  365,  366,  367,  368,  369,  370,  371,  372,  373,  374,  375,  376,  377,  378,  379,  380
  381,  382,  383,  384,  385,  386,  387,  388,  389,  390,  391,  392,  393,  394,  395,  396
  397,  398,  399,  400,  401,  402,  403,  404,  405,  406,  407,  408,  409,  410,  411,  412
  413,  414,  415,  416,  417,  418,  419,  420,  421,  422,  423,  424,  425,  426,  427,  428
  429,  430,  431,  432,  433,  434,  435,  436,  437,  438,  439,  440,  441,  442,  443,  444
  445,  446,  447,  448,  449,  450,  451,  452,  453,  454,  455,  456,  457,  458,  459,  460
  461,  462,  463,  464,  465,  466,  467,  468,  469,  470,  471,  472,  473,  474,  475,  476
  477,  478,  479,  480,  481,  482,  483,  484,  485,  486,  487,  488,  489,  490,  491,  492
  493,  530,  531,  532,  533,  534,  535,  536,  537,  538,  539,  540,  541,  542,  543,  544
  741,  742,  743,  744,  745,  746,  747,  748,  749,  750,  751,  752,  753,  754,  755,  756
  757,  758,  759,  760,  761,  762,  763,  764,  765,  766,  767,  768,  769,  770,  771,  772
  773,  774,  775,  776,  777,  778,  779,  780,  781,  782,  783,  784,  785,  786,  787,  788
  789,  790,  791,  792,  793,  794,  795,  796,  797,  798,  799,  800,  801,  802,  803,  804
  805,  806,  807,  808,  809,  810,  811,  812,  813,  814,  815,  816,  817,  818,  819,  820
  821,  822,  823,  824,  825,  826,  827,  828,  829,  830,  831,  832,  833,  834,  835,  836
  837,  838,  839,  840,  841,  842,  843,  844,  845,  846,  847,  848,  849,  850,  851,  852
  853,  854,  855,  856,  857,  858,  859,  860,  861,  862,  863,  864,  865,  866,  867,  868
  869,  870,  871,  872,  873,  874,  875,  876,  877,  878,  879,  880,  881,  882,  883,  884
  885,  886,  887,  888,  889,  890,  891,  892,  893,  894,  895,  896,  897,  898,  899,  900
  901,  902,  903,  904,  905,  906,  907,  908,  909,  910,  911,  912,  913,  914,  915,  916
  917,  918,  919,  920,  921,  922,  923,  924,  925,  926,  927,  928,  929,  930,  931,  932
  933,  934,  935,  936,  937,  938,  939,  940,  941,  942,  943,  944,  945,  946,  947,  948
  949,  950,  951,  952,  953,  954,  955,  956,  957,  958,  959,  960,  961,  962,  963,  964
  965,  966,  967,  968,  969,  970,  971,  972,  973,  974,  975,  976,  977,  978,  979,  980
  981,  982,  983,  984,  985,  986,  987,  988,  989,  990,  991,  992,  993,  994,  995,  996
  997,  998,  999, 1000, 1001, 1002, 1003, 1004, 1005, 1006, 1007, 1008, 1009, 1010, 1011, 1012
 1013, 1014, 1015, 1016, 1017, 1018, 1019, 1020, 1021, 1022, 1023, 1024, 1025, 1026, 1027, 1028
 1029, 1030, 1031, 1032, 1033, 1034, 1035, 1036, 1037, 1038, 1039, 1040, 1041, 1042, 1043, 1044
 1045, 1046
*Elset, elset=P5
    1,    2,    3,    4,    5,    6,    7,    8,   90,   91,   92,   93,   94,   95,   96,   97
   98,   99,  100,  101,  102,  103,  104,  105,  106,  107,  108,  109,  110,  111,  112,  113
  114,  115,  116,  117,  118,  119,  120,  121,  122,  123,  124,  125,  126,  127,  128,  129
  130,  131,  132,  133,  134,  135,  136,  137,  138,  139,  140,  141,  142,  143,  144,  145
  146,  147,  148,  149,  150,  151,  152,  153,  154,  155,  156,  157,  158,  159,  160,  161
  162,  163,  164,  165,  166,  167,  168,  169,  170,  171,  172,  173,  174,  175,  176,  177
  178,  179,  180,  181,  182,  183,  184,  185,  186,  187,  188,  189,  190,  191,  192,  193
  194,  195,  196,  197,  198,  199,  200,  201,  202,  203,  204,  205,  206,  207,  208,  209
  210,  211,  212,  213,  214,  215,  216,  217,  218,  219,  220,  221,  222,  223,  224,  225
  226,  227,  228,  229,  230,  231,  232,  233,  234,  235,  236,  237,  238,  239,  240,  241
  242,  243,  244,  245,  246,  247,  248,  249,  250,  251,  252,  253,  254,  255,  256,  257
  258,  259,  260,  261,  262,  263,  264,  265,  266,  267,  268,  269,  270,  271,  272,  273
  274,  275,  276,  277,  278,  279,  280,  281,  282,  283,  284,  285,  286,  287,  288,  289
  290,  291,  292,  293,  294,  295,  296,  297,  298,  299,  300,  301,  302,  303,  304,  305
  306,  307,  308,  309,  310,  311,  312,  313,  314,  315,  316,  317,  318,  319,  320,  321
  322,  323,  324,  325,  326,  327,  328,  329,  330,  331,  332,  333,  334,  335,  336,  337
  338,  339,  340,  341,  342,  343,  344,  345,  346,  347,  348,  349,  350,  351,  352,  353
  354,  355,  356,  357,  358,  359,  360,  361,  362,  363,  364,  365,  366,  367,  368,  369
  370,  371,  372,  373,  374,  375,  376,  377,  378,  379,  380,  381,  382,  383,  384,  385
  386,  387,  388,  389,  390,  391,  392,  393,  394,  395,  396,  397,  398,  399,  400,  401
  402,  403,  404,  405,  406,  407,  408,  409,  410,  411,  412,  413,  414,  415,  416,  417
  418,  419,  420,  421,  422,  423,  424,  425,  426,  427,  428,  429,  430,  431,  432,  433
  434,  435,  436,  437,  438,  439,  440,  441,  481,  482,  483,  484,  485,  486,  487,  488
  489,  490,  491,  492,  493,  494,  495,  496,  702,  703,  704,  705,  706,  707,  708,  709
  710,  711,  712,  713,  714,  715,  716,  717,  718,  719,  720,  721,  722,  723,  724,  725
  726,  727,  728,  729,  730,  731,  732,  733,  734,  735,  736,  737,  738,  739,  740,  741
  742,  743,  744,  745,  746,  747,  748,  749,  750,  751,  752,  753,  754,  755,  756,  757
  758,  759,  760,  761,  762,  763,  764,  765,  766,  767,  768,  769,  770,  771,  772,  773
  774,  775,  776,  777,  778,  779,  780,  781,  782,  783,  784,  785,  786,  787,  788,  789
  790,  791,  792,  793,  794,  795,  796,  797,  798,  799,  800,  801,  802,  803,  804,  805
  806,  807,  808,  809,  810,  811,  812,  813,  814,  815,  816,  817,  818,  819,  820,  821
  822,  823,  824,  825,  826,  827,  828,  829,  830,  831,  832,  833,  834,  835,  836,  837
  838,  839,  840,  841,  842,  843,  844,  845,  846,  847,  848,  849,  850,  851,  852,  853
  854,  855,  856,  857,  858,  859,  860,  861,  862,  863,  864,  865,  866,  867,  868,  869
  870,  871,  872,  873,  874,  875,  876,  877,  878,  879,  880,  881,  882,  883,  884,  885
  886,  887,  888,  889,  890,  891,  892,  893,  894,  895,  896,  897,  898,  899,  900,  901
  902,  903,  904,  905,  906,  907,  908,  909,  910,  911,  912,  913,  914,  915,  916,  917
  918,  919,  920,  921,  922,  923,  924,  925,  926,  927,  928,  929,  930,  931,  932,  933
  934,  935,  936,  937,  938,  939,  940,  941,  942,  943,  944,  945,  946,  947,  948,  949
  950,  951,  952,  953,  954,  955,  956,  957,  958,  959,  960,  961,  962,  963,  964,  965
  966,  967,  968,  969,  970,  971,  972,  973,  974,  975,  976,  977,  978,  979,  980,  981
  982,  983,  984,  985,  986,  987,  988,  989,  990,  991,  992,  993,  994,  995,  996,  997
  998,  999, 1000, 1001, 1002, 1003, 1004, 1005, 1006, 1007, 1008, 1009, 1010, 1011, 1012, 1013
 1014, 1015, 1016, 1017, 1018, 1019, 1020, 1021, 1022, 1023, 1024, 1025, 1026, 1027, 1028, 1029
*Nset, nset=P6
   31,   34,   36,   42,   65,   67,   69,   75,   76,   77,  698,  699,  700,  701,  702,  703
  704,  705,  706,  707,  708,  709,  710,  711,  712,  713,  714,  715,  716,  717,  718,  719
  720,  721,  722,  723,  724,  725,  726,  727,  728,  729,  730,  731,  732,  733,  734,  735
  736,  737,  738,  739,  740, 1063, 1064, 1065, 1066, 1067, 1068, 1069, 1070, 1071, 1072, 1073
 1074, 1075, 1076, 1077, 1078, 1079, 1080, 1081, 1082, 1083, 1084, 1085, 1086, 1087, 1088, 1089
 1090, 1091, 1092, 1093, 1094, 1095, 1096, 1097, 1098, 1099, 1100, 1101, 1102, 1103, 1104, 1105
 1391, 1392, 1393, 1394, 1395, 1396, 1397, 1398, 1399, 1400, 1401, 1402, 1403, 1404, 1405, 1406
 1407, 1408, 1409, 1410, 1411, 1412, 1413, 1414, 1415, 1416, 1417, 1418, 1419, 1420, 1421, 1422
 1423, 1424, 1425, 1426, 1427, 1428, 1429, 1430, 1431, 1432, 1433, 1434, 1435, 1436, 1437, 1438
 1439, 1440, 1441, 1442, 1443, 1444, 1445, 1446, 1447, 1448, 1449, 1450, 1451, 1452, 1453, 1454
 1455, 1456, 1457, 1458, 1459, 1460, 1461, 1462, 1463, 1464, 1465, 1466, 1467, 1468, 1469, 1470
 1471, 1472, 1473, 1474, 1475, 1476, 1477, 1478, 1479, 1480, 1481, 1482, 1483, 1484, 1485, 1486
 1487, 1488, 1489, 1490, 1491, 1492, 1493, 1494, 1495, 1496, 1497, 1498, 1499, 1500, 1501, 1502
 1503, 1504, 1505, 1506, 1507, 1508, 1509, 1510, 1511, 1512, 1513, 1514, 1515, 1516, 1517, 1518
 1519,
*Elset, elset=P6
  658,  659,  660,  661,  662,  663,  664,  665,  666,  667,  668,  669,  670,  671,  672,  673
  674,  675,  676,  677,  678,  679,  680,  681,  682,  683,  684,  685,  686,  687,  688,  689
  690,  691,  692,  693,  694,  695,  696,  697,  698,  699,  700,  701, 1047, 1048, 1049, 1050
 1051, 1052, 1053, 1054, 1055, 1056, 1057, 1058, 1059, 1060, 1061, 1062, 1063, 1064, 1065, 1066
 1067, 1068, 1069, 1070, 1071, 1072, 1073, 1074, 1075, 1076, 1077, 1078, 1079, 1080, 1081, 1082
 1083, 1084, 1085, 1086, 1087, 1088, 1089, 1090, 1390, 1391, 1392, 1393, 1394, 1395, 1396, 1397
 1398, 1399, 1400, 1401, 1402, 1403, 1404, 1405, 1406, 1407, 1408, 1409, 1410, 1411, 1412, 1413
 1414, 1415, 1416, 1417, 1418, 1419, 1420, 1421, 1422, 1423, 1424, 1425, 1426, 1427, 1428, 1429
 1430, 1431, 1432, 1433, 1434, 1435, 1436, 1437, 1438, 1439, 1440, 1441, 1442, 1443, 1444, 1445
 1446, 1447, 1448, 1449, 1450, 1451, 1452, 1453, 1454, 1455, 1456, 1457, 1458, 1459, 1460, 1461
 1462, 1463, 1464, 1465, 1466, 1467, 1468, 1469, 1470, 1471, 1472, 1473, 1474, 1475, 1476, 1477
 1478, 1479, 1480, 1481, 1482, 1483, 1484, 1485, 1486, 1487, 1488, 1489, 1490, 1491, 1492, 1493
 1494, 1495, 1496, 1497, 1498, 1499, 1500, 1501, 1502, 1503, 1504, 1505, 1506, 1507, 1508, 1509
 1510, 1511, 1512, 1513, 1514, 1515, 1516, 1517, 1518, 1519, 1520, 1521
** Section: P5  Profile: C100
*Beam Section, elset=P5, material=S235JR, poisson = 0.3, temperature=GRADIENTS, section=ARBITRARY
5, 29.1607, 30., 29.1607, 48., 4.
-16.8393, 48., 4.
-16.8393, -48., 4.
29.1607, -48., 4.
29.1607, -30., 4.
0.,0.906351,0.422525
** Section: P2  Profile: C125
*Beam Section, elset=P2, material=S355JR, poisson = 0.3, temperature=GRADIENTS, section=ARBITRARY
5, 36.9745, 37.5, 36.9745, 60.5, 4.
-21.5255, 60.5, 4.
-21.5255, -60.5, 4.
36.9745, -60.5, 4.
36.9745, -37.5, 4.
1.,0.,0.
** Section: P3  Profile: C125
*Beam Section, elset=P3, material=S235JR, poisson = 0.3, temperature=GRADIENTS, section=ARBITRARY
5, 36.9745, 37.5, 36.9745, 60.5, 4.
-21.5255, 60.5, 4.
-21.5255, -60.5, 4.
36.9745, -60.5, 4.
36.9745, -37.5, 4.
1.,0.,0.
** Section: P4  Profile: C125
*Beam Section, elset=P4, material=S235JR, poisson = 0.3, temperature=GRADIENTS, section=ARBITRARY
5, 36.9745, 37.5, 36.9745, 60.5, 4.
-21.5255, 60.5, 4.
-21.5255, -60.5, 4.
36.9745, -60.5, 4.
36.9745, -37.5, 4.
1.,0.,0.
** Section: P6  Profile: C50
*Beam Section, elset=P6, material=S235JR, poisson = 0.3, temperature=GRADIENTS, section=ARBITRARY
3, 16.875, 22.5, -5.625, 22.5, 5.
-5.625, -22.5, 5.
16.875, -22.5, 5.
1.,0.,0.
*RELEASE
461, S2, M1-M2
540, S2, M1-M2
1093, S2, M1-M2
1115, S2, M1-M2
1137, S2, M1-M2
529, S2, M1-M2
1189, S2, M1-M2
1554, S2, M1-M2
1595, S2, M1-M2
1636, S2, M1-M2
658, S1, M1-M2
701, S2, M1-M2
1047, S1, M1-M2
1090, S2, M1-M2
1390, S1, M1-M2
1433, S2, M1-M2
1434, S1, M1-M2
1477, S2, M1-M2
1478, S1, M1-M2
1521, S2, M1-M2
*End Part
**  
**
** ASSEMBLY
**
*Assembly, name=Assembly
**  
*Instance, name=FRAME, part=SteelFrame
*End Instance
**  
*Nset, nset=BASES, instance=FRAME
 32, 35, 37, 66, 68, 70, 71, 78, 79, 80
*Nset, nset=CONTACT_ROW_1, instance=FRAME
  6,  7,  8,  9, 10, 11, 12, 13, 14, 15, 16, 18, 19, 20, 21, 22
 23, 24, 25, 26, 27, 28
*Nset, nset=CONTACT_ROW_2, instance=FRAME
  1, 33, 43, 44, 45, 46, 47, 48, 49, 50, 51, 53, 54, 55, 56, 57
 58, 59, 60, 61, 62, 63
*End Assembly
** 
** MATERIALS
** 
*Material, name=S235JR
*Density
 7.85e-09,
*Elastic
210000., 0.3
*Material, name=S355JR
*Density
 7.85e-09,
*Elastic
210000., 0.3
** 
** BOUNDARY CONDITIONS
** 
** Name: GroundFixity Type: Symmetry/Antisymmetry/Encastre
*Boundary
BASES, ENCASTRE
** ----------------------------------------------------------------
** 
** STEP: D
** 
*Step, name=D, nlgeom=NO, inc=1000
*Static
1., 1., 1e-05, 1.
** 
** LOADS
** 
** Name: D_Contact_1   Type: Concentrated force
*Cload, op=NEW
CONTACT_ROW_1, 2, 0.
CONTACT_ROW_1, 3, -253.985
** Name: D_Contact_2   Type: Concentrated force
*Cload, op=NEW
CONTACT_ROW_2, 2, 0.
CONTACT_ROW_2, 3, -253.985
** Name: D_SteelGravity   Type: Gravity
*Dload, op=NEW
, GRAV, 9810., 0., 0., -1.
** 
** OUTPUT REQUESTS
** 
*Restart, write, frequency=0
** 
** FIELD OUTPUT: Nodal
** 
*Output, field, frequency=99999
*Node Output
RF, RM, U
** 
** FIELD OUTPUT: Section_P2
** 
*Element Output, elset=FRAME.P2, directions=YES
1, 2, 3, 4, 5, 6, 7, 8, 9, 10, 11
S, SF
** 
** FIELD OUTPUT: Section_P3
** 
*Element Output, elset=FRAME.P3, directions=YES
1, 2, 3, 4, 5, 6, 7, 8, 9, 10, 11
S, SF
** 
** FIELD OUTPUT: Section_P4
** 
*Element Output, elset=FRAME.P4, directions=YES
1, 2, 3, 4, 5, 6, 7, 8, 9, 10, 11
S, SF
** 
** FIELD OUTPUT: Section_P5
** 
*Element Output, elset=FRAME.P5, directions=YES
1, 2, 3, 4, 5, 6, 7, 8, 9, 10, 11
S, SF
** 
** FIELD OUTPUT: Section_P6
** 
*Element Output, elset=FRAME.P6, directions=YES
1, 2, 3, 4, 5, 6, 7
S, SF
** 
** HISTORY OUTPUT: Energy
** 
*Output, history
*Energy Output
ALLSE, ALLWK
*End Step
** ----------------------------------------------------------------
** 
** STEP: S
** 
*Step, name=S, nlgeom=NO, inc=1000
*Static
1., 1., 1e-05, 1.
** 
** LOADS
** 
** Name: D_Contact_1   Type: Concentrated force
*Cload, op=NEW
** Name: D_Contact_2   Type: Concentrated force
*Cload, op=NEW
** Name: D_SteelGravity   Type: Gravity
*Dload, op=NEW
** Name: S_Contact_1   Type: Concentrated force
*Cload, op=NEW
CONTACT_ROW_1, 2, 0.
CONTACT_ROW_1, 3, -1466.4
** Name: S_Contact_2   Type: Concentrated force
*Cload, op=NEW
CONTACT_ROW_2, 2, 0.
CONTACT_ROW_2, 3, -1466.4
** 
** OUTPUT REQUESTS
** 
*Restart, write, frequency=0
** 
** FIELD OUTPUT: Nodal
** 
*Output, field, frequency=99999
*Node Output
RF, RM, U
** 
** FIELD OUTPUT: Section_P2
** 
*Element Output, elset=FRAME.P2, directions=YES
1, 2, 3, 4, 5, 6, 7, 8, 9, 10, 11
S, SF
** 
** FIELD OUTPUT: Section_P3
** 
*Element Output, elset=FRAME.P3, directions=YES
1, 2, 3, 4, 5, 6, 7, 8, 9, 10, 11
S, SF
** 
** FIELD OUTPUT: Section_P4
** 
*Element Output, elset=FRAME.P4, directions=YES
1, 2, 3, 4, 5, 6, 7, 8, 9, 10, 11
S, SF
** 
** FIELD OUTPUT: Section_P5
** 
*Element Output, elset=FRAME.P5, directions=YES
1, 2, 3, 4, 5, 6, 7, 8, 9, 10, 11
S, SF
** 
** FIELD OUTPUT: Section_P6
** 
*Element Output, elset=FRAME.P6, directions=YES
1, 2, 3, 4, 5, 6, 7
S, SF
** 
** HISTORY OUTPUT: Energy
** 
*Output, history
*Energy Output
ALLSE, ALLWK
*End Step
** ----------------------------------------------------------------
** 
** STEP: W
** 
*Step, name=W, nlgeom=NO, inc=1000
*Static
1., 1., 1e-05, 1.
** 
** LOADS
** 
** Name: S_Contact_1   Type: Concentrated force
*Cload, op=NEW
** Name: S_Contact_2   Type: Concentrated force
*Cload, op=NEW
** Name: W_Contact_1   Type: Concentrated force
*Cload, op=NEW
CONTACT_ROW_1, 2, 71.112
CONTACT_ROW_1, 3, -152.541
** Name: W_Contact_2   Type: Concentrated force
*Cload, op=NEW
CONTACT_ROW_2, 2, 71.112
CONTACT_ROW_2, 3, -152.541
** 
** OUTPUT REQUESTS
** 
*Restart, write, frequency=0
** 
** FIELD OUTPUT: Nodal
** 
*Output, field, frequency=99999
*Node Output
RF, RM, U
** 
** FIELD OUTPUT: Section_P2
** 
*Element Output, elset=FRAME.P2, directions=YES
1, 2, 3, 4, 5, 6, 7, 8, 9, 10, 11
S, SF
** 
** FIELD OUTPUT: Section_P3
** 
*Element Output, elset=FRAME.P3, directions=YES
1, 2, 3, 4, 5, 6, 7, 8, 9, 10, 11
S, SF
** 
** FIELD OUTPUT: Section_P4
** 
*Element Output, elset=FRAME.P4, directions=YES
1, 2, 3, 4, 5, 6, 7, 8, 9, 10, 11
S, SF
** 
** FIELD OUTPUT: Section_P5
** 
*Element Output, elset=FRAME.P5, directions=YES
1, 2, 3, 4, 5, 6, 7, 8, 9, 10, 11
S, SF
** 
** FIELD OUTPUT: Section_P6
** 
*Element Output, elset=FRAME.P6, directions=YES
1, 2, 3, 4, 5, 6, 7
S, SF
** 
** HISTORY OUTPUT: Energy
** 
*Output, history
*Energy Output
ALLSE, ALLWK
*End Step
** ----------------------------------------------------------------
** 
** STEP: D_07S
** 
*Step, name=D_07S, nlgeom=NO, inc=1000
*Static
1., 1., 1e-05, 1.
** 
** LOADS
** 
** Name: D_07S_Contact_1   Type: Concentrated force
*Cload, op=NEW
CONTACT_ROW_1, 2, 0.
CONTACT_ROW_1, 3, -1280.47
** Name: D_07S_Contact_2   Type: Concentrated force
*Cload, op=NEW
CONTACT_ROW_2, 2, 0.
CONTACT_ROW_2, 3, -1280.47
** Name: D_07S_SteelGravity   Type: Gravity
*Dload, op=NEW
, GRAV, 9810., 0., 0., -1.
** Name: W_Contact_1   Type: Concentrated force
*Cload, op=NEW
** Name: W_Contact_2   Type: Concentrated force
*Cload, op=NEW
** 
** OUTPUT REQUESTS
** 
*Restart, write, frequency=0
** 
** FIELD OUTPUT: Nodal
** 
*Output, field, frequency=99999
*Node Output
RF, RM, U
** 
** FIELD OUTPUT: Section_P2
** 
*Element Output, elset=FRAME.P2, directions=YES
1, 2, 3, 4, 5, 6, 7, 8, 9, 10, 11
S, SF
** 
** FIELD OUTPUT: Section_P3
** 
*Element Output, elset=FRAME.P3, directions=YES
1, 2, 3, 4, 5, 6, 7, 8, 9, 10, 11
S, SF
** 
** FIELD OUTPUT: Section_P4
** 
*Element Output, elset=FRAME.P4, directions=YES
1, 2, 3, 4, 5, 6, 7, 8, 9, 10, 11
S, SF
** 
** FIELD OUTPUT: Section_P5
** 
*Element Output, elset=FRAME.P5, directions=YES
1, 2, 3, 4, 5, 6, 7, 8, 9, 10, 11
S, SF
** 
** FIELD OUTPUT: Section_P6
** 
*Element Output, elset=FRAME.P6, directions=YES
1, 2, 3, 4, 5, 6, 7
S, SF
** 
** HISTORY OUTPUT: Energy
** 
*Output, history
*Energy Output
ALLSE, ALLWK
*End Step
** ----------------------------------------------------------------
** 
** STEP: D_S
** 
*Step, name=D_S, nlgeom=NO, inc=1000
*Static
1., 1., 1e-05, 1.
** 
** LOADS
** 
** Name: D_07S_Contact_1   Type: Concentrated force
*Cload, op=NEW
** Name: D_07S_Contact_2   Type: Concentrated force
*Cload, op=NEW
** Name: D_07S_SteelGravity   Type: Gravity
*Dload, op=NEW
** Name: D_S_Contact_1   Type: Concentrated force
*Cload, op=NEW
CONTACT_ROW_1, 2, 0.
CONTACT_ROW_1, 3, -1720.39
** Name: D_S_Contact_2   Type: Concentrated force
*Cload, op=NEW
CONTACT_ROW_2, 2, 0.
CONTACT_ROW_2, 3, -1720.39
** Name: D_S_SteelGravity   Type: Gravity
*Dload, op=NEW
, GRAV, 9810., 0., 0., -1.
** 
** OUTPUT REQUESTS
** 
*Restart, write, frequency=0
** 
** FIELD OUTPUT: Nodal
** 
*Output, field, frequency=99999
*Node Output
RF, RM, U
** 
** FIELD OUTPUT: Section_P2
** 
*Element Output, elset=FRAME.P2, directions=YES
1, 2, 3, 4, 5, 6, 7, 8, 9, 10, 11
S, SF
** 
** FIELD OUTPUT: Section_P3
** 
*Element Output, elset=FRAME.P3, directions=YES
1, 2, 3, 4, 5, 6, 7, 8, 9, 10, 11
S, SF
** 
** FIELD OUTPUT: Section_P4
** 
*Element Output, elset=FRAME.P4, directions=YES
1, 2, 3, 4, 5, 6, 7, 8, 9, 10, 11
S, SF
** 
** FIELD OUTPUT: Section_P5
** 
*Element Output, elset=FRAME.P5, directions=YES
1, 2, 3, 4, 5, 6, 7, 8, 9, 10, 11
S, SF
** 
** FIELD OUTPUT: Section_P6
** 
*Element Output, elset=FRAME.P6, directions=YES
1, 2, 3, 4, 5, 6, 7
S, SF
** 
** HISTORY OUTPUT: Energy
** 
*Output, history
*Energy Output
ALLSE, ALLWK
*End Step
** ----------------------------------------------------------------
** 
** STEP: D_S_W
** 
*Step, name=D_S_W, nlgeom=NO, inc=1000
*Static
1., 1., 1e-05, 1.
** 
** LOADS
** 
** Name: D_S_Contact_1   Type: Concentrated force
*Cload, op=NEW
** Name: D_S_Contact_2   Type: Concentrated force
*Cload, op=NEW
** Name: D_S_SteelGravity   Type: Gravity
*Dload, op=NEW
** Name: D_S_W_Contact_1   Type: Concentrated force
*Cload, op=NEW
CONTACT_ROW_1, 2, 71.112
CONTACT_ROW_1, 3, -1872.93
** Name: D_S_W_Contact_2   Type: Concentrated force
*Cload, op=NEW
CONTACT_ROW_2, 2, 71.112
CONTACT_ROW_2, 3, -1872.93
** Name: D_S_W_SteelGravity   Type: Gravity
*Dload, op=NEW
, GRAV, 9810., 0., 0., -1.
** 
** OUTPUT REQUESTS
** 
*Restart, write, frequency=0
** 
** FIELD OUTPUT: Nodal
** 
*Output, field, frequency=99999
*Node Output
RF, RM, U
** 
** FIELD OUTPUT: Section_P2
** 
*Element Output, elset=FRAME.P2, directions=YES
1, 2, 3, 4, 5, 6, 7, 8, 9, 10, 11
S, SF
** 
** FIELD OUTPUT: Section_P3
** 
*Element Output, elset=FRAME.P3, directions=YES
1, 2, 3, 4, 5, 6, 7, 8, 9, 10, 11
S, SF
** 
** FIELD OUTPUT: Section_P4
** 
*Element Output, elset=FRAME.P4, directions=YES
1, 2, 3, 4, 5, 6, 7, 8, 9, 10, 11
S, SF
** 
** FIELD OUTPUT: Section_P5
** 
*Element Output, elset=FRAME.P5, directions=YES
1, 2, 3, 4, 5, 6, 7, 8, 9, 10, 11
S, SF
** 
** FIELD OUTPUT: Section_P6
** 
*Element Output, elset=FRAME.P6, directions=YES
1, 2, 3, 4, 5, 6, 7
S, SF
** 
** HISTORY OUTPUT: Energy
** 
*Output, history
*Energy Output
ALLSE, ALLWK
*End Step
** ----------------------------------------------------------------
** 
** STEP: D_S_mW
** 
*Step, name=D_S_mW, nlgeom=NO, inc=1000
*Static
1., 1., 1e-05, 1.
** 
** LOADS
** 
** Name: D_S_W_Contact_1   Type: Concentrated force
*Cload, op=NEW
** Name: D_S_W_Contact_2   Type: Concentrated force
*Cload, op=NEW
** Name: D_S_W_SteelGravity   Type: Gravity
*Dload, op=NEW
** Name: D_S_mW_Contact_1   Type: Concentrated force
*Cload, op=NEW
CONTACT_ROW_1, 2, -71.112
CONTACT_ROW_1, 3, -1567.84
** Name: D_S_mW_Contact_2   Type: Concentrated force
*Cload, op=NEW
CONTACT_ROW_2, 2, -71.112
CONTACT_ROW_2, 3, -1567.84
** Name: D_S_mW_SteelGravity   Type: Gravity
*Dload, op=NEW
, GRAV, 9810., 0., 0., -1.
** 
** OUTPUT REQUESTS
** 
*Restart, write, frequency=0
** 
** FIELD OUTPUT: Nodal
** 
*Output, field, frequency=99999
*Node Output
RF, RM, U
** 
** FIELD OUTPUT: Section_P2
** 
*Element Output, elset=FRAME.P2, directions=YES
1, 2, 3, 4, 5, 6, 7, 8, 9, 10, 11
S, SF
** 
** FIELD OUTPUT: Section_P3
** 
*Element Output, elset=FRAME.P3, directions=YES
1, 2, 3, 4, 5, 6, 7, 8, 9, 10, 11
S, SF
** 
** FIELD OUTPUT: Section_P4
** 
*Element Output, elset=FRAME.P4, directions=YES
1, 2, 3, 4, 5, 6, 7, 8, 9, 10, 11
S, SF
** 
** FIELD OUTPUT: Section_P5
** 
*Element Output, elset=FRAME.P5, directions=YES
1, 2, 3, 4, 5, 6, 7, 8, 9, 10, 11
S, SF
** 
** FIELD OUTPUT: Section_P6
** 
*Element Output, elset=FRAME.P6, directions=YES
1, 2, 3, 4, 5, 6, 7
S, SF
** 
** HISTORY OUTPUT: Energy
** 
*Output, history
*Energy Output
ALLSE, ALLWK
*End Step
** ----------------------------------------------------------------
** 
** STEP: C09D_W
** 
*Step, name=C09D_W, nlgeom=NO, inc=1000
*Static
1., 1., 1e-05, 1.
** 
** LOADS
** 
** Name: C09D_W_Contact_1   Type: Concentrated force
*Cload, op=NEW
CONTACT_ROW_1, 2, 71.112
CONTACT_ROW_1, 3, -381.128
** Name: C09D_W_Contact_2   Type: Concentrated force
*Cload, op=NEW
CONTACT_ROW_2, 2, 71.112
CONTACT_ROW_2, 3, -381.128
** Name: C09D_W_SteelGravity   Type: Gravity
*Dload, op=NEW
, GRAV, 8829., 0., 0., -1.
** Name: D_S_mW_Contact_1   Type: Concentrated force
*Cload, op=NEW
** Name: D_S_mW_Contact_2   Type: Concentrated force
*Cload, op=NEW
** Name: D_S_mW_SteelGravity   Type: Gravity
*Dload, op=NEW
** 
** OUTPUT REQUESTS
** 
*Restart, write, frequency=0
** 
** FIELD OUTPUT: Nodal
** 
*Output, field, frequency=99999
*Node Output
RF, RM, U
** 
** FIELD OUTPUT: Section_P2
** 
*Element Output, elset=FRAME.P2, directions=YES
1, 2, 3, 4, 5, 6, 7, 8, 9, 10, 11
S, SF
** 
** FIELD OUTPUT: Section_P3
** 
*Element Output, elset=FRAME.P3, directions=YES
1, 2, 3, 4, 5, 6, 7, 8, 9, 10, 11
S, SF
** 
** FIELD OUTPUT: Section_P4
** 
*Element Output, elset=FRAME.P4, directions=YES
1, 2, 3, 4, 5, 6, 7, 8, 9, 10, 11
S, SF
** 
** FIELD OUTPUT: Section_P5
** 
*Element Output, elset=FRAME.P5, directions=YES
1, 2, 3, 4, 5, 6, 7, 8, 9, 10, 11
S, SF
** 
** FIELD OUTPUT: Section_P6
** 
*Element Output, elset=FRAME.P6, directions=YES
1, 2, 3, 4, 5, 6, 7
S, SF
** 
** HISTORY OUTPUT: Energy
** 
*Output, history
*Energy Output
ALLSE, ALLWK
*End Step
** ----------------------------------------------------------------
** 
** STEP: C09D_mW
** 
*Step, name=C09D_mW, nlgeom=NO, inc=1000
*Static
1., 1., 1e-05, 1.
** 
** LOADS
** 
** Name: C09D_W_Contact_1   Type: Concentrated force
*Cload, op=NEW
** Name: C09D_W_Contact_2   Type: Concentrated force
*Cload, op=NEW
** Name: C09D_W_SteelGravity   Type: Gravity
*Dload, op=NEW
** Name: C09D_mW_Contact_1   Type: Concentrated force
*Cload, op=NEW
CONTACT_ROW_1, 2, -71.112
CONTACT_ROW_1, 3, -76.0451
** Name: C09D_mW_Contact_2   Type: Concentrated force
*Cload, op=NEW
CONTACT_ROW_2, 2, -71.112
CONTACT_ROW_2, 3, -76.0451
** Name: C09D_mW_SteelGravity   Type: Gravity
*Dload, op=NEW
, GRAV, 8829., 0., 0., -1.
** 
** OUTPUT REQUESTS
** 
*Restart, write, frequency=0
** 
** FIELD OUTPUT: Nodal
** 
*Output, field, frequency=99999
*Node Output
RF, RM, U
** 
** FIELD OUTPUT: Section_P2
** 
*Element Output, elset=FRAME.P2, directions=YES
1, 2, 3, 4, 5, 6, 7, 8, 9, 10, 11
S, SF
** 
** FIELD OUTPUT: Section_P3
** 
*Element Output, elset=FRAME.P3, directions=YES
1, 2, 3, 4, 5, 6, 7, 8, 9, 10, 11
S, SF
** 
** FIELD OUTPUT: Section_P4
** 
*Element Output, elset=FRAME.P4, directions=YES
1, 2, 3, 4, 5, 6, 7, 8, 9, 10, 11
S, SF
** 
** FIELD OUTPUT: Section_P5
** 
*Element Output, elset=FRAME.P5, directions=YES
1, 2, 3, 4, 5, 6, 7, 8, 9, 10, 11
S, SF
** 
** FIELD OUTPUT: Section_P6
** 
*Element Output, elset=FRAME.P6, directions=YES
1, 2, 3, 4, 5, 6, 7
S, SF
** 
** HISTORY OUTPUT: Energy
** 
*Output, history
*Energy Output
ALLSE, ALLWK
*End Step
