*Heading
 Solar support; see assumptions and run metadata; N mm tonne s
** Job name: Solar_022_eaves_pins_web_offset Model name: SolarSupport
** Generated by: Abaqus/CAE 2024
*Preprint, echo=NO, model=NO, history=NO, contact=NO
**
** PARTS
**
*Part, name=SteelFrame
*Node
      1,       18148.,           0.,         927.
      2,       18148.,   2134.36011,   416.769989
      3,       18148.,   2134.36011,        2047.
      4,       18148.,           0.,        1052.
      5,       18148.,           0.,           0.
      6,       18148.,   2134.36011,           0.
      7,   17782.5957,   2888.94629,   2398.77441
      8,   18195.0508,   2888.94629,   2398.77441
      9,   18195.0508,   2134.36011,        2047.
     10,   18195.0508,           0.,        1052.
     11,   18195.0508,  -754.586365,   700.225464
     12,   17782.5957,  -754.586365,   700.225464
     13,   16957.6875,  -754.586365,   700.225464
     14,   16132.7783,  -754.586365,   700.225464
     15,   15307.8691,  -754.586365,   700.225464
     16,     14482.96,  -754.586365,   700.225464
     17,   13658.0508,  -754.586365,   700.225464
     18,   12833.1416,  -754.586365,   700.225464
     19,   12008.2324,  -754.586365,   700.225464
     20,   11183.3242,  -754.586365,   700.225464
     21,    10358.415,  -754.586365,   700.225464
     22,   9533.50586,  -754.586365,   700.225464
     23,   9121.05078,  -754.586365,   700.225464
     24,   8708.59668,  -754.586365,   700.225464
     25,    7883.6875,  -754.586365,   700.225464
     26,   7058.77832,  -754.586365,   700.225464
     27,   6233.86914,  -754.586365,   700.225464
     28,   5408.95996,  -754.586365,   700.225464
     29,   4584.05127,  -754.586365,   700.225464
     30,   3759.14185,  -754.586365,   700.225464
     31,   2934.23291,  -754.586365,   700.225464
     32,   2109.32373,  -754.586365,   700.225464
     33,   1284.41467,  -754.586365,   700.225464
     34,   459.505615,  -754.586365,   700.225464
     35,   47.0510559,  -754.586365,   700.225464
     36,   47.0510559,           0.,        1052.
     37,   47.0510559,   2134.36011,        2047.
     38,   47.0510559,   2888.94629,   2398.77441
     39,   459.505615,   2888.94629,   2398.77441
     40,   1284.41467,   2888.94629,   2398.77441
     41,   2109.32373,   2888.94629,   2398.77441
     42,   2934.23291,   2888.94629,   2398.77441
     43,   3759.14185,   2888.94629,   2398.77441
     44,   4584.05127,   2888.94629,   2398.77441
     45,   4584.05127,   2134.36011,        2047.
     46,   4584.05127,           0.,        1052.
     47,   16957.6875,   2888.94629,   2398.77441
     48,   13658.0508,           0.,        1052.
     49,   9121.05078,           0.,        1052.
     50,   5408.95996,   2888.94629,   2398.77441
     51,   16132.7783,   2888.94629,   2398.77441
     52,   15307.8691,   2888.94629,   2398.77441
     53,     14482.96,   2888.94629,   2398.77441
     54,   13658.0508,   2888.94629,   2398.77441
     55,   12833.1416,   2888.94629,   2398.77441
     56,   12008.2324,   2888.94629,   2398.77441
     57,   11183.3242,   2888.94629,   2398.77441
     58,    10358.415,   2888.94629,   2398.77441
     59,   9533.50586,   2888.94629,   2398.77441
     60,   9121.05078,   2888.94629,   2398.77441
     61,   8708.59668,   2888.94629,   2398.77441
     62,    7883.6875,   2888.94629,   2398.77441
     63,   7058.77832,   2888.94629,   2398.77441
     64,   6233.86914,   2888.94629,   2398.77441
     65,   13658.0508,   2134.36011,        2047.
     66,   9121.05078,   2134.36011,        2047.
     67,        9074.,           0.,         927.
     68,        9074.,   2134.36011,   416.769989
     69,        9074.,   2134.36011,        2047.
     70,        9074.,           0.,        1052.
     71,        9074.,           0.,           0.
     72,        9074.,   2134.36011,           0.
     73,           0.,           0.,         927.
     74,           0.,   2134.36011,   416.769989
     75,           0.,   2134.36011,        2047.
     76,           0.,           0.,        1052.
     77,           0.,           0.,           0.
     78,           0.,   2134.36011,           0.
     79,        4537.,           0.,         927.
     80,        4537.,   2134.36011,   416.769989
     81,        4537.,   2134.36011,        2047.
     82,        4537.,           0.,        1052.
     83,        4537.,           0.,           0.
     84,        4537.,   2134.36011,           0.
     85,       13611.,           0.,         927.
     86,       13611.,   2134.36011,   416.769989
     87,       13611.,   2134.36011,        2047.
     88,       13611.,           0.,        1052.
     89,       13611.,           0.,           0.
     90,       13611.,   2134.36011,           0.
     91,       18148.,   48.5081825,    915.40387
     92,       18148.,   97.0163651,   903.807739
     93,       18148.,   145.524551,   892.211609
     94,       18148.,    194.03273,   880.615479
     95,       18148.,   242.540909,   869.019348
     96,       18148.,   291.049103,   857.423157
     97,       18148.,   339.557281,   845.827026
     98,       18148.,    388.06546,   834.230896
     99,       18148.,   436.573639,   822.634766
    100,       18148.,   485.081818,   811.038635
    101,       18148.,   533.590027,   799.442505
    102,       18148.,   582.098206,   787.846375
    103,       18148.,   630.606384,   776.250244
    104,       18148.,   679.114563,   764.654114
    105,       18148.,   727.622742,   753.057983
    106,       18148.,    776.13092,   741.461792
    107,       18148.,   824.639099,   729.865662
    108,       18148.,   873.147278,   718.269531
    109,       18148.,   921.655457,   706.673401
    110,       18148.,   970.163635,   695.077271
    111,       18148.,   1018.67181,    683.48114
    112,       18148.,   1067.18005,    671.88501
    113,       18148.,   1115.68823,   660.288879
    114,       18148.,   1164.19641,   648.692749
    115,       18148.,   1212.70459,   637.096619
    116,       18148.,   1261.21277,   625.500427
    117,       18148.,   1309.72095,   613.904297
    118,       18148.,   1358.22913,   602.308167
    119,       18148.,    1406.7373,   590.712036
    120,       18148.,   1455.24548,   579.115906
    121,       18148.,   1503.75366,   567.519775
    122,       18148.,   1552.26184,   555.923645
    123,       18148.,   1600.77002,   544.327515
    124,       18148.,    1649.2782,   532.731384
    125,       18148.,   1697.78638,   521.135254
    126,       18148.,   1746.29456,   509.539093
    127,       18148.,   1794.80273,   497.942963
    128,       18148.,   1843.31091,   486.346832
    129,       18148.,   1891.81909,   474.750671
    130,       18148.,   1940.32727,   463.154541
    131,       18148.,   1988.83545,   451.558411
    132,       18148.,   2037.34363,    439.96228
    133,       18148.,   2085.85181,    428.36615
    134,       18148.,   2134.36011,   466.170898
    135,       18148.,   2134.36011,   515.571838
    136,       18148.,   2134.36011,   564.972717
    137,       18148.,   2134.36011,   614.373657
    138,       18148.,   2134.36011,   663.774536
    139,       18148.,   2134.36011,   713.175476
    140,       18148.,   2134.36011,   762.576355
    141,       18148.,   2134.36011,   811.977295
    142,       18148.,   2134.36011,   861.378174
    143,       18148.,   2134.36011,   910.779114
    144,       18148.,   2134.36011,   960.179993
    145,       18148.,   2134.36011,   1009.58093
    146,       18148.,   2134.36011,   1058.98181
    147,       18148.,   2134.36011,   1108.38269
    148,       18148.,   2134.36011,   1157.78369
    149,       18148.,   2134.36011,   1207.18457
    150,       18148.,   2134.36011,   1256.58545
    151,       18148.,   2134.36011,   1305.98633
    152,       18148.,   2134.36011,   1355.38733
    153,       18148.,   2134.36011,   1404.78821
    154,       18148.,   2134.36011,   1454.18909
    155,       18148.,   2134.36011,   1503.58997
    156,       18148.,   2134.36011,   1552.99097
    157,       18148.,   2134.36011,   1602.39185
    158,       18148.,   2134.36011,   1651.79272
    159,       18148.,   2134.36011,    1701.1936
    160,       18148.,   2134.36011,    1750.5946
    161,       18148.,   2134.36011,   1799.99548
    162,       18148.,   2134.36011,   1849.39636
    163,       18148.,   2134.36011,   1898.79724
    164,       18148.,   2134.36011,   1948.19824
    165,       18148.,   2134.36011,   1997.59912
    166,       18148.,           0.,   968.666687
    167,       18148.,           0.,   1010.33331
    168,       18148.,           0.,   48.7894745
    169,       18148.,           0.,    97.578949
    170,       18148.,           0.,   146.368423
    171,       18148.,           0.,   195.157898
    172,       18148.,           0.,   243.947372
    173,       18148.,           0.,   292.736847
    174,       18148.,           0.,   341.526306
    175,       18148.,           0.,   390.315796
    176,       18148.,           0.,   439.105255
    177,       18148.,           0.,   487.894745
    178,       18148.,           0.,   536.684204
    179,       18148.,           0.,   585.473694
    180,       18148.,           0.,   634.263184
    181,       18148.,           0.,   683.052612
    182,       18148.,           0.,   731.842102
    183,       18148.,           0.,   780.631592
    184,       18148.,           0.,   829.421082
    185,       18148.,           0.,    878.21051
    186,       18148.,   2134.36011,   52.0962486
    187,       18148.,   2134.36011,   104.192497
    188,       18148.,   2134.36011,   156.288757
    189,       18148.,   2134.36011,   208.384995
    190,       18148.,   2134.36011,   260.481262
    191,       18148.,   2134.36011,   312.577515
    192,       18148.,   2134.36011,   364.673737
    193,   17834.1543,   2888.94629,   2398.77441
    194,   17885.7109,   2888.94629,   2398.77441
    195,   17937.2676,   2888.94629,   2398.77441
    196,   17988.8242,   2888.94629,   2398.77441
    197,   18040.3809,   2888.94629,   2398.77441
    198,   18091.9375,   2888.94629,   2398.77441
    199,   18143.4941,   2888.94629,   2398.77441
    200,   18195.0508,   2178.74731,   2067.69263
    201,   18195.0508,   2223.13477,   2088.38525
    202,   18195.0508,   2267.52222,   2109.07788
    203,   18195.0508,   2311.90967,   2129.77051
    204,   18195.0508,   2356.29712,   2150.46313
    205,   18195.0508,   2400.68457,   2171.15576
    206,   18195.0508,   2445.07202,   2191.84839
    207,   18195.0508,   2489.45947,   2212.54102
    208,   18195.0508,   2533.84692,   2233.23364
    209,   18195.0508,   2578.23438,   2253.92627
    210,   18195.0508,   2622.62183,    2274.6189
    211,   18195.0508,   2667.00928,   2295.31152
    212,   18195.0508,   2711.39673,   2316.00415
    213,   18195.0508,   2755.78418,   2336.69678
    214,   18195.0508,   2800.17163,   2357.38916
    215,   18195.0508,   2844.55884,   2378.08179
    216,   18195.0508,   45.4119148,   1073.17017
    217,   18195.0508,   90.8238297,   1094.34045
    218,   18195.0508,   136.235748,   1115.51062
    219,   18195.0508,   181.647659,   1136.68091
    220,   18195.0508,    227.05957,   1157.85107
    221,   18195.0508,   272.471497,   1179.02124
    222,   18195.0508,   317.883392,   1200.19153
    223,   18195.0508,   363.295319,   1221.36169
    224,   18195.0508,   408.707245,   1242.53186
    225,   18195.0508,   454.119141,   1263.70215
    226,   18195.0508,   499.531067,   1284.87231
    227,   18195.0508,   544.942993,    1306.0426
    228,   18195.0508,   590.354919,   1327.21277
    229,   18195.0508,   635.766785,   1348.38293
    230,   18195.0508,   681.178711,   1369.55322
    231,   18195.0508,   726.590637,   1390.72339
    232,   18195.0508,   772.002563,   1411.89368
    233,   18195.0508,    817.41449,   1433.06384
    234,   18195.0508,   862.826355,   1454.23401
    235,   18195.0508,   908.238281,    1475.4043
    236,   18195.0508,   953.650208,   1496.57446
    237,   18195.0508,   999.062134,   1517.74463
    238,   18195.0508,     1044.474,   1538.91492
    239,   18195.0508,   1089.88599,   1560.08508
    240,   18195.0508,   1135.29785,   1581.25537
    241,   18195.0508,   1180.70984,   1602.42554
    242,   18195.0508,    1226.1217,    1623.5957
    243,   18195.0508,   1271.53357,   1644.76599
    244,   18195.0508,   1316.94556,   1665.93616
    245,   18195.0508,   1362.35742,   1687.10632
    246,   18195.0508,   1407.76941,   1708.27661
    247,   18195.0508,   1453.18127,   1729.44678
    248,   18195.0508,   1498.59314,   1750.61707
    249,   18195.0508,   1544.00513,   1771.78723
    250,   18195.0508,   1589.41699,    1792.9574
    251,   18195.0508,   1634.82898,   1814.12769
    252,   18195.0508,   1680.24084,   1835.29785
    253,   18195.0508,   1725.65271,   1856.46814
    254,   18195.0508,    1771.0647,   1877.63831
    255,   18195.0508,   1816.47656,   1898.80847
    256,   18195.0508,   1861.88855,   1919.97876
    257,   18195.0508,   1907.30042,   1941.14893
    258,   18195.0508,   1952.71228,   1962.31909
    259,   18195.0508,   1998.12427,   1983.48938
    260,   18195.0508,   2043.53613,   2004.65955
    261,   18195.0508,     2088.948,   2025.82983
    262,   18195.0508,  -710.198975,   720.918091
    263,   18195.0508,  -665.811523,   741.610718
    264,   18195.0508,  -621.424072,   762.303345
    265,   18195.0508,  -577.036682,   782.995972
    266,   18195.0508,  -532.649231,   803.688599
    267,   18195.0508,   -488.26178,   824.381165
    268,   18195.0508,  -443.874359,   845.073792
    269,   18195.0508,  -399.486908,   865.766418
    270,   18195.0508,  -355.099487,   886.459045
    271,   18195.0508,  -310.712036,   907.151672
    272,   18195.0508,  -266.324615,   927.844299
    273,   18195.0508,   -221.93718,   948.536926
    274,   18195.0508,  -177.549744,   969.229553
    275,   18195.0508,  -133.162308,   989.922119
    276,   18195.0508,  -88.7748718,   1010.61475
    277,   18195.0508,  -44.3874359,   1031.30737
    278,   17834.1543,  -754.586365,   700.225464
    279,   17885.7109,  -754.586365,   700.225464
    280,   17937.2676,  -754.586365,   700.225464
    281,   17988.8242,  -754.586365,   700.225464
    282,   18040.3809,  -754.586365,   700.225464
    283,   18091.9375,  -754.586365,   700.225464
    284,   18143.4941,  -754.586365,   700.225464
    285,   17009.2441,  -754.586365,   700.225464
    286,   17060.8008,  -754.586365,   700.225464
    287,   17112.3574,  -754.586365,   700.225464
    288,   17163.9141,  -754.586365,   700.225464
    289,   17215.4707,  -754.586365,   700.225464
    290,   17267.0293,  -754.586365,   700.225464
    291,   17318.5859,  -754.586365,   700.225464
    292,   17370.1426,  -754.586365,   700.225464
    293,   17421.6992,  -754.586365,   700.225464
    294,   17473.2559,  -754.586365,   700.225464
    295,   17524.8125,  -754.586365,   700.225464
    296,   17576.3691,  -754.586365,   700.225464
    297,   17627.9258,  -754.586365,   700.225464
    298,   17679.4824,  -754.586365,   700.225464
    299,   17731.0391,  -754.586365,   700.225464
    300,    16184.335,  -754.586365,   700.225464
    301,   16235.8916,  -754.586365,   700.225464
    302,   16287.4492,  -754.586365,   700.225464
    303,   16339.0059,  -754.586365,   700.225464
    304,   16390.5625,  -754.586365,   700.225464
    305,   16442.1191,  -754.586365,   700.225464
    306,   16493.6758,  -754.586365,   700.225464
    307,   16545.2324,  -754.586365,   700.225464
    308,   16596.7891,  -754.586365,   700.225464
    309,   16648.3457,  -754.586365,   700.225464
    310,   16699.9043,  -754.586365,   700.225464
    311,   16751.4609,  -754.586365,   700.225464
    312,   16803.0176,  -754.586365,   700.225464
    313,   16854.5742,  -754.586365,   700.225464
    314,   16906.1309,  -754.586365,   700.225464
    315,   15359.4258,  -754.586365,   700.225464
    316,   15410.9824,  -754.586365,   700.225464
    317,     15462.54,  -754.586365,   700.225464
    318,   15514.0967,  -754.586365,   700.225464
    319,   15565.6533,  -754.586365,   700.225464
    320,     15617.21,  -754.586365,   700.225464
    321,   15668.7666,  -754.586365,   700.225464
    322,   15720.3242,  -754.586365,   700.225464
    323,   15771.8809,  -754.586365,   700.225464
    324,   15823.4375,  -754.586365,   700.225464
    325,   15874.9941,  -754.586365,   700.225464
    326,   15926.5508,  -754.586365,   700.225464
    327,   15978.1074,  -754.586365,   700.225464
    328,    16029.665,  -754.586365,   700.225464
    329,   16081.2217,  -754.586365,   700.225464
    330,   14534.5166,  -754.586365,   700.225464
    331,   14586.0742,  -754.586365,   700.225464
    332,   14637.6309,  -754.586365,   700.225464
    333,   14689.1875,  -754.586365,   700.225464
    334,   14740.7441,  -754.586365,   700.225464
    335,   14792.3008,  -754.586365,   700.225464
    336,   14843.8574,  -754.586365,   700.225464
    337,    14895.415,  -754.586365,   700.225464
    338,   14946.9717,  -754.586365,   700.225464
    339,   14998.5283,  -754.586365,   700.225464
    340,    15050.085,  -754.586365,   700.225464
    341,   15101.6416,  -754.586365,   700.225464
    342,   15153.1992,  -754.586365,   700.225464
    343,   15204.7559,  -754.586365,   700.225464
    344,   15256.3125,  -754.586365,   700.225464
    345,   13709.6074,  -754.586365,   700.225464
    346,    13761.165,  -754.586365,   700.225464
    347,   13812.7217,  -754.586365,   700.225464
    348,   13864.2783,  -754.586365,   700.225464
    349,    13915.835,  -754.586365,   700.225464
    350,   13967.3916,  -754.586365,   700.225464
    351,   14018.9492,  -754.586365,   700.225464
    352,   14070.5059,  -754.586365,   700.225464
    353,   14122.0625,  -754.586365,   700.225464
    354,   14173.6191,  -754.586365,   700.225464
    355,   14225.1758,  -754.586365,   700.225464
    356,   14276.7324,  -754.586365,   700.225464
    357,     14328.29,  -754.586365,   700.225464
    358,   14379.8467,  -754.586365,   700.225464
    359,   14431.4033,  -754.586365,   700.225464
    360,   12884.6992,  -754.586365,   700.225464
    361,   12936.2559,  -754.586365,   700.225464
    362,   12987.8125,  -754.586365,   700.225464
    363,   13039.3691,  -754.586365,   700.225464
    364,   13090.9258,  -754.586365,   700.225464
    365,   13142.4824,  -754.586365,   700.225464
    366,     13194.04,  -754.586365,   700.225464
    367,   13245.5967,  -754.586365,   700.225464
    368,   13297.1533,  -754.586365,   700.225464
    369,     13348.71,  -754.586365,   700.225464
    370,   13400.2666,  -754.586365,   700.225464
    371,   13451.8242,  -754.586365,   700.225464
    372,   13503.3809,  -754.586365,   700.225464
    373,   13554.9375,  -754.586365,   700.225464
    374,   13606.4941,  -754.586365,   700.225464
    375,     12059.79,  -754.586365,   700.225464
    376,   12111.3467,  -754.586365,   700.225464
    377,   12162.9033,  -754.586365,   700.225464
    378,     12214.46,  -754.586365,   700.225464
    379,   12266.0166,  -754.586365,   700.225464
    380,   12317.5742,  -754.586365,   700.225464
    381,   12369.1309,  -754.586365,   700.225464
    382,   12420.6875,  -754.586365,   700.225464
    383,   12472.2441,  -754.586365,   700.225464
    384,   12523.8008,  -754.586365,   700.225464
    385,   12575.3574,  -754.586365,   700.225464
    386,    12626.915,  -754.586365,   700.225464
    387,   12678.4717,  -754.586365,   700.225464
    388,   12730.0283,  -754.586365,   700.225464
    389,    12781.585,  -754.586365,   700.225464
    390,   11234.8809,  -754.586365,   700.225464
    391,   11286.4375,  -754.586365,   700.225464
    392,   11337.9941,  -754.586365,   700.225464
    393,   11389.5508,  -754.586365,   700.225464
    394,   11441.1074,  -754.586365,   700.225464
    395,    11492.665,  -754.586365,   700.225464
    396,   11544.2217,  -754.586365,   700.225464
    397,   11595.7783,  -754.586365,   700.225464
    398,    11647.335,  -754.586365,   700.225464
    399,   11698.8916,  -754.586365,   700.225464
    400,   11750.4492,  -754.586365,   700.225464
    401,   11802.0059,  -754.586365,   700.225464
    402,   11853.5625,  -754.586365,   700.225464
    403,   11905.1191,  -754.586365,   700.225464
    404,   11956.6758,  -754.586365,   700.225464
    405,   10409.9717,  -754.586365,   700.225464
    406,   10461.5283,  -754.586365,   700.225464
    407,    10513.085,  -754.586365,   700.225464
    408,   10564.6416,  -754.586365,   700.225464
    409,   10616.1992,  -754.586365,   700.225464
    410,   10667.7559,  -754.586365,   700.225464
    411,   10719.3125,  -754.586365,   700.225464
    412,   10770.8691,  -754.586365,   700.225464
    413,   10822.4258,  -754.586365,   700.225464
    414,   10873.9824,  -754.586365,   700.225464
    415,     10925.54,  -754.586365,   700.225464
    416,   10977.0967,  -754.586365,   700.225464
    417,   11028.6533,  -754.586365,   700.225464
    418,     11080.21,  -754.586365,   700.225464
    419,   11131.7666,  -754.586365,   700.225464
    420,    9585.0625,  -754.586365,   700.225464
    421,   9636.61914,  -754.586365,   700.225464
    422,   9688.17578,  -754.586365,   700.225464
    423,   9739.73242,  -754.586365,   700.225464
    424,   9791.29004,  -754.586365,   700.225464
    425,   9842.84668,  -754.586365,   700.225464
    426,   9894.40332,  -754.586365,   700.225464
    427,   9945.95996,  -754.586365,   700.225464
    428,    9997.5166,  -754.586365,   700.225464
    429,   10049.0742,  -754.586365,   700.225464
    430,   10100.6309,  -754.586365,   700.225464
    431,   10152.1875,  -754.586365,   700.225464
    432,   10203.7441,  -754.586365,   700.225464
    433,   10255.3008,  -754.586365,   700.225464
    434,   10306.8574,  -754.586365,   700.225464
    435,   9172.60742,  -754.586365,   700.225464
    436,   9224.16504,  -754.586365,   700.225464
    437,   9275.72168,  -754.586365,   700.225464
    438,   9327.27832,  -754.586365,   700.225464
    439,   9378.83496,  -754.586365,   700.225464
    440,    9430.3916,  -754.586365,   700.225464
    441,   9481.94922,  -754.586365,   700.225464
    442,   8760.15332,  -754.586365,   700.225464
    443,   8811.70996,  -754.586365,   700.225464
    444,    8863.2666,  -754.586365,   700.225464
    445,   8914.82422,  -754.586365,   700.225464
    446,   8966.38086,  -754.586365,   700.225464
    447,    9017.9375,  -754.586365,   700.225464
    448,   9069.49414,  -754.586365,   700.225464
    449,   7935.24414,  -754.586365,   700.225464
    450,   7986.80127,  -754.586365,   700.225464
    451,   8038.35791,  -754.586365,   700.225464
    452,   8089.91455,  -754.586365,   700.225464
    453,   8141.47168,  -754.586365,   700.225464
    454,   8193.02832,  -754.586365,   700.225464
    455,   8244.58496,  -754.586365,   700.225464
    456,    8296.1416,  -754.586365,   700.225464
    457,   8347.69922,  -754.586365,   700.225464
    458,   8399.25586,  -754.586365,   700.225464
    459,    8450.8125,  -754.586365,   700.225464
    460,   8502.36914,  -754.586365,   700.225464
    461,   8553.92578,  -754.586365,   700.225464
    462,   8605.48242,  -754.586365,   700.225464
    463,   8657.04004,  -754.586365,   700.225464
    464,   7110.33496,  -754.586365,   700.225464
    465,   7161.89209,  -754.586365,   700.225464
    466,   7213.44873,  -754.586365,   700.225464
    467,   7265.00537,  -754.586365,   700.225464
    468,    7316.5625,  -754.586365,   700.225464
    469,   7368.11914,  -754.586365,   700.225464
    470,   7419.67627,  -754.586365,   700.225464
    471,   7471.23291,  -754.586365,   700.225464
    472,   7522.78955,  -754.586365,   700.225464
    473,   7574.34668,  -754.586365,   700.225464
    474,   7625.90332,  -754.586365,   700.225464
    475,   7677.45996,  -754.586365,   700.225464
    476,   7729.01709,  -754.586365,   700.225464
    477,   7780.57373,  -754.586365,   700.225464
    478,   7832.13037,  -754.586365,   700.225464
    479,   6285.42627,  -754.586365,   700.225464
    480,   6336.98291,  -754.586365,   700.225464
    481,   6388.53955,  -754.586365,   700.225464
    482,   6440.09668,  -754.586365,   700.225464
    483,   6491.65332,  -754.586365,   700.225464
    484,   6543.20996,  -754.586365,   700.225464
    485,   6594.76709,  -754.586365,   700.225464
    486,   6646.32373,  -754.586365,   700.225464
    487,   6697.88037,  -754.586365,   700.225464
    488,    6749.4375,  -754.586365,   700.225464
    489,   6800.99414,  -754.586365,   700.225464
    490,   6852.55127,  -754.586365,   700.225464
    491,   6904.10791,  -754.586365,   700.225464
    492,   6955.66455,  -754.586365,   700.225464
    493,   7007.22168,  -754.586365,   700.225464
    494,   5460.51709,  -754.586365,   700.225464
    495,   5512.07373,  -754.586365,   700.225464
    496,   5563.63037,  -754.586365,   700.225464
    497,    5615.1875,  -754.586365,   700.225464
    498,   5666.74414,  -754.586365,   700.225464
    499,   5718.30127,  -754.586365,   700.225464
    500,   5769.85791,  -754.586365,   700.225464
    501,   5821.41455,  -754.586365,   700.225464
    502,   5872.97168,  -754.586365,   700.225464
    503,   5924.52832,  -754.586365,   700.225464
    504,   5976.08496,  -754.586365,   700.225464
    505,   6027.64209,  -754.586365,   700.225464
    506,   6079.19873,  -754.586365,   700.225464
    507,   6130.75537,  -754.586365,   700.225464
    508,    6182.3125,  -754.586365,   700.225464
    509,   4635.60791,  -754.586365,   700.225464
    510,   4687.16455,  -754.586365,   700.225464
    511,   4738.72168,  -754.586365,   700.225464
    512,   4790.27832,  -754.586365,   700.225464
    513,   4841.83496,  -754.586365,   700.225464
    514,   4893.39209,  -754.586365,   700.225464
    515,   4944.94873,  -754.586365,   700.225464
    516,   4996.50537,  -754.586365,   700.225464
    517,    5048.0625,  -754.586365,   700.225464
    518,   5099.61914,  -754.586365,   700.225464
    519,   5151.17627,  -754.586365,   700.225464
    520,   5202.73291,  -754.586365,   700.225464
    521,   5254.28955,  -754.586365,   700.225464
    522,   5305.84668,  -754.586365,   700.225464
    523,   5357.40332,  -754.586365,   700.225464
    524,   3810.69873,  -754.586365,   700.225464
    525,   3862.25562,  -754.586365,   700.225464
    526,    3913.8125,  -754.586365,   700.225464
    527,   3965.36914,  -754.586365,   700.225464
    528,   4016.92603,  -754.586365,   700.225464
    529,   4068.48291,  -754.586365,   700.225464
    530,   4120.03955,  -754.586365,   700.225464
    531,   4171.59668,  -754.586365,   700.225464
    532,   4223.15332,  -754.586365,   700.225464
    533,   4274.70996,  -754.586365,   700.225464
    534,   4326.26709,  -754.586365,   700.225464
    535,   4377.82373,  -754.586365,   700.225464
    536,   4429.38037,  -754.586365,   700.225464
    537,    4480.9375,  -754.586365,   700.225464
    538,   4532.49414,  -754.586365,   700.225464
    539,   2985.78979,  -754.586365,   700.225464
    540,   3037.34644,  -754.586365,   700.225464
    541,   3088.90332,  -754.586365,   700.225464
    542,   3140.46021,  -754.586365,   700.225464
    543,   3192.01685,  -754.586365,   700.225464
    544,   3243.57373,  -754.586365,   700.225464
    545,   3295.13062,  -754.586365,   700.225464
    546,    3346.6875,  -754.586365,   700.225464
    547,   3398.24414,  -754.586365,   700.225464
    548,   3449.80103,  -754.586365,   700.225464
    549,   3501.35791,  -754.586365,   700.225464
    550,   3552.91479,  -754.586365,   700.225464
    551,   3604.47144,  -754.586365,   700.225464
    552,   3656.02832,  -754.586365,   700.225464
    553,   3707.58521,  -754.586365,   700.225464
    554,   2160.88062,  -754.586365,   700.225464
    555,    2212.4375,  -754.586365,   700.225464
    556,   2263.99414,  -754.586365,   700.225464
    557,   2315.55103,  -754.586365,   700.225464
    558,   2367.10791,  -754.586365,   700.225464
    559,   2418.66479,  -754.586365,   700.225464
    560,   2470.22144,  -754.586365,   700.225464
    561,   2521.77832,  -754.586365,   700.225464
    562,   2573.33521,  -754.586365,   700.225464
    563,   2624.89185,  -754.586365,   700.225464
    564,   2676.44873,  -754.586365,   700.225464
    565,   2728.00562,  -754.586365,   700.225464
    566,    2779.5625,  -754.586365,   700.225464
    567,   2831.11914,  -754.586365,   700.225464
    568,   2882.67603,  -754.586365,   700.225464
    569,   1335.97156,  -754.586365,   700.225464
    570,   1387.52832,  -754.586365,   700.225464
    571,   1439.08521,  -754.586365,   700.225464
    572,   1490.64197,  -754.586365,   700.225464
    573,   1542.19873,  -754.586365,   700.225464
    574,   1593.75562,  -754.586365,   700.225464
    575,   1645.31238,  -754.586365,   700.225464
    576,   1696.86926,  -754.586365,   700.225464
    577,   1748.42603,  -754.586365,   700.225464
    578,   1799.98291,  -754.586365,   700.225464
    579,   1851.53967,  -754.586365,   700.225464
    580,   1903.09656,  -754.586365,   700.225464
    581,   1954.65332,  -754.586365,   700.225464
    582,   2006.21021,  -754.586365,   700.225464
    583,   2057.76685,  -754.586365,   700.225464
    584,   511.062408,  -754.586365,   700.225464
    585,   562.619263,  -754.586365,   700.225464
    586,   614.176086,  -754.586365,   700.225464
    587,   665.732849,  -754.586365,   700.225464
    588,   717.289673,  -754.586365,   700.225464
    589,   768.846497,  -754.586365,   700.225464
    590,    820.40332,  -754.586365,   700.225464
    591,   871.960144,  -754.586365,   700.225464
    592,   923.516968,  -754.586365,   700.225464
    593,   975.073792,  -754.586365,   700.225464
    594,   1026.63062,  -754.586365,   700.225464
    595,   1078.18738,  -754.586365,   700.225464
    596,   1129.74426,  -754.586365,   700.225464
    597,   1181.30103,  -754.586365,   700.225464
    598,   1232.85791,  -754.586365,   700.225464
    599,    98.607872,  -754.586365,   700.225464
    600,   150.164688,  -754.586365,   700.225464
    601,   201.721512,  -754.586365,   700.225464
    602,   253.278336,  -754.586365,   700.225464
    603,   304.835144,  -754.586365,   700.225464
    604,   356.391968,  -754.586365,   700.225464
    605,   407.948792,  -754.586365,   700.225464
    606,   47.0510559,  -710.198975,   720.918091
    607,   47.0510559,  -665.811523,   741.610718
    608,   47.0510559,  -621.424072,   762.303345
    609,   47.0510559,  -577.036682,   782.995972
    610,   47.0510559,  -532.649231,   803.688599
    611,   47.0510559,   -488.26178,   824.381165
    612,   47.0510559,  -443.874359,   845.073792
    613,   47.0510559,  -399.486908,   865.766418
    614,   47.0510559,  -355.099487,   886.459045
    615,   47.0510559,  -310.712036,   907.151672
    616,   47.0510559,  -266.324615,   927.844299
    617,   47.0510559,   -221.93718,   948.536926
    618,   47.0510559,  -177.549744,   969.229553
    619,   47.0510559,  -133.162308,   989.922119
    620,   47.0510559,  -88.7748718,   1010.61475
    621,   47.0510559,  -44.3874359,   1031.30737
    622,   47.0510559,   45.4119148,   1073.17017
    623,   47.0510559,   90.8238297,   1094.34045
    624,   47.0510559,   136.235748,   1115.51062
    625,   47.0510559,   181.647659,   1136.68091
    626,   47.0510559,    227.05957,   1157.85107
    627,   47.0510559,   272.471497,   1179.02124
    628,   47.0510559,   317.883392,   1200.19153
    629,   47.0510559,   363.295319,   1221.36169
    630,   47.0510559,   408.707245,   1242.53186
    631,   47.0510559,   454.119141,   1263.70215
    632,   47.0510559,   499.531067,   1284.87231
    633,   47.0510559,   544.942993,    1306.0426
    634,   47.0510559,   590.354919,   1327.21277
    635,   47.0510559,   635.766785,   1348.38293
    636,   47.0510559,   681.178711,   1369.55322
    637,   47.0510559,   726.590637,   1390.72339
    638,   47.0510559,   772.002563,   1411.89368
    639,   47.0510559,    817.41449,   1433.06384
    640,   47.0510559,   862.826355,   1454.23401
    641,   47.0510559,   908.238281,    1475.4043
    642,   47.0510559,   953.650208,   1496.57446
    643,   47.0510559,   999.062134,   1517.74463
    644,   47.0510559,     1044.474,   1538.91492
    645,   47.0510559,   1089.88599,   1560.08508
    646,   47.0510559,   1135.29785,   1581.25537
    647,   47.0510559,   1180.70984,   1602.42554
    648,   47.0510559,    1226.1217,    1623.5957
    649,   47.0510559,   1271.53357,   1644.76599
    650,   47.0510559,   1316.94556,   1665.93616
    651,   47.0510559,   1362.35742,   1687.10632
    652,   47.0510559,   1407.76941,   1708.27661
    653,   47.0510559,   1453.18127,   1729.44678
    654,   47.0510559,   1498.59314,   1750.61707
    655,   47.0510559,   1544.00513,   1771.78723
    656,   47.0510559,   1589.41699,    1792.9574
    657,   47.0510559,   1634.82898,   1814.12769
    658,   47.0510559,   1680.24084,   1835.29785
    659,   47.0510559,   1725.65271,   1856.46814
    660,   47.0510559,    1771.0647,   1877.63831
    661,   47.0510559,   1816.47656,   1898.80847
    662,   47.0510559,   1861.88855,   1919.97876
    663,   47.0510559,   1907.30042,   1941.14893
    664,   47.0510559,   1952.71228,   1962.31909
    665,   47.0510559,   1998.12427,   1983.48938
    666,   47.0510559,   2043.53613,   2004.65955
    667,   47.0510559,     2088.948,   2025.82983
    668,   47.0510559,   2178.74731,   2067.69263
    669,   47.0510559,   2223.13477,   2088.38525
    670,   47.0510559,   2267.52222,   2109.07788
    671,   47.0510559,   2311.90967,   2129.77051
    672,   47.0510559,   2356.29712,   2150.46313
    673,   47.0510559,   2400.68457,   2171.15576
    674,   47.0510559,   2445.07202,   2191.84839
    675,   47.0510559,   2489.45947,   2212.54102
    676,   47.0510559,   2533.84692,   2233.23364
    677,   47.0510559,   2578.23438,   2253.92627
    678,   47.0510559,   2622.62183,    2274.6189
    679,   47.0510559,   2667.00928,   2295.31152
    680,   47.0510559,   2711.39673,   2316.00415
    681,   47.0510559,   2755.78418,   2336.69678
    682,   47.0510559,   2800.17163,   2357.38916
    683,   47.0510559,   2844.55884,   2378.08179
    684,    98.607872,   2888.94629,   2398.77441
    685,   150.164688,   2888.94629,   2398.77441
    686,   201.721512,   2888.94629,   2398.77441
    687,   253.278336,   2888.94629,   2398.77441
    688,   304.835144,   2888.94629,   2398.77441
    689,   356.391968,   2888.94629,   2398.77441
    690,   407.948792,   2888.94629,   2398.77441
    691,   511.062408,   2888.94629,   2398.77441
    692,   562.619263,   2888.94629,   2398.77441
    693,   614.176086,   2888.94629,   2398.77441
    694,   665.732849,   2888.94629,   2398.77441
    695,   717.289673,   2888.94629,   2398.77441
    696,   768.846497,   2888.94629,   2398.77441
    697,    820.40332,   2888.94629,   2398.77441
    698,   871.960144,   2888.94629,   2398.77441
    699,   923.516968,   2888.94629,   2398.77441
    700,   975.073792,   2888.94629,   2398.77441
    701,   1026.63062,   2888.94629,   2398.77441
    702,   1078.18738,   2888.94629,   2398.77441
    703,   1129.74426,   2888.94629,   2398.77441
    704,   1181.30103,   2888.94629,   2398.77441
    705,   1232.85791,   2888.94629,   2398.77441
    706,   1335.97156,   2888.94629,   2398.77441
    707,   1387.52832,   2888.94629,   2398.77441
    708,   1439.08521,   2888.94629,   2398.77441
    709,   1490.64197,   2888.94629,   2398.77441
    710,   1542.19873,   2888.94629,   2398.77441
    711,   1593.75562,   2888.94629,   2398.77441
    712,   1645.31238,   2888.94629,   2398.77441
    713,   1696.86926,   2888.94629,   2398.77441
    714,   1748.42603,   2888.94629,   2398.77441
    715,   1799.98291,   2888.94629,   2398.77441
    716,   1851.53967,   2888.94629,   2398.77441
    717,   1903.09656,   2888.94629,   2398.77441
    718,   1954.65332,   2888.94629,   2398.77441
    719,   2006.21021,   2888.94629,   2398.77441
    720,   2057.76685,   2888.94629,   2398.77441
    721,   2160.88062,   2888.94629,   2398.77441
    722,    2212.4375,   2888.94629,   2398.77441
    723,   2263.99414,   2888.94629,   2398.77441
    724,   2315.55103,   2888.94629,   2398.77441
    725,   2367.10791,   2888.94629,   2398.77441
    726,   2418.66479,   2888.94629,   2398.77441
    727,   2470.22144,   2888.94629,   2398.77441
    728,   2521.77832,   2888.94629,   2398.77441
    729,   2573.33521,   2888.94629,   2398.77441
    730,   2624.89185,   2888.94629,   2398.77441
    731,   2676.44873,   2888.94629,   2398.77441
    732,   2728.00562,   2888.94629,   2398.77441
    733,    2779.5625,   2888.94629,   2398.77441
    734,   2831.11914,   2888.94629,   2398.77441
    735,   2882.67603,   2888.94629,   2398.77441
    736,   2985.78979,   2888.94629,   2398.77441
    737,   3037.34644,   2888.94629,   2398.77441
    738,   3088.90332,   2888.94629,   2398.77441
    739,   3140.46021,   2888.94629,   2398.77441
    740,   3192.01685,   2888.94629,   2398.77441
    741,   3243.57373,   2888.94629,   2398.77441
    742,   3295.13062,   2888.94629,   2398.77441
    743,    3346.6875,   2888.94629,   2398.77441
    744,   3398.24414,   2888.94629,   2398.77441
    745,   3449.80103,   2888.94629,   2398.77441
    746,   3501.35791,   2888.94629,   2398.77441
    747,   3552.91479,   2888.94629,   2398.77441
    748,   3604.47144,   2888.94629,   2398.77441
    749,   3656.02832,   2888.94629,   2398.77441
    750,   3707.58521,   2888.94629,   2398.77441
    751,   3810.69873,   2888.94629,   2398.77441
    752,   3862.25562,   2888.94629,   2398.77441
    753,    3913.8125,   2888.94629,   2398.77441
    754,   3965.36914,   2888.94629,   2398.77441
    755,   4016.92603,   2888.94629,   2398.77441
    756,   4068.48291,   2888.94629,   2398.77441
    757,   4120.03955,   2888.94629,   2398.77441
    758,   4171.59668,   2888.94629,   2398.77441
    759,   4223.15332,   2888.94629,   2398.77441
    760,   4274.70996,   2888.94629,   2398.77441
    761,   4326.26709,   2888.94629,   2398.77441
    762,   4377.82373,   2888.94629,   2398.77441
    763,   4429.38037,   2888.94629,   2398.77441
    764,    4480.9375,   2888.94629,   2398.77441
    765,   4532.49414,   2888.94629,   2398.77441
    766,   4584.05127,   2178.74731,   2067.69263
    767,   4584.05127,   2223.13477,   2088.38525
    768,   4584.05127,   2267.52222,   2109.07788
    769,   4584.05127,   2311.90967,   2129.77051
    770,   4584.05127,   2356.29712,   2150.46313
    771,   4584.05127,   2400.68457,   2171.15576
    772,   4584.05127,   2445.07202,   2191.84839
    773,   4584.05127,   2489.45947,   2212.54102
    774,   4584.05127,   2533.84692,   2233.23364
    775,   4584.05127,   2578.23438,   2253.92627
    776,   4584.05127,   2622.62183,    2274.6189
    777,   4584.05127,   2667.00928,   2295.31152
    778,   4584.05127,   2711.39673,   2316.00415
    779,   4584.05127,   2755.78418,   2336.69678
    780,   4584.05127,   2800.17163,   2357.38916
    781,   4584.05127,   2844.55884,   2378.08179
    782,   4584.05127,   45.4119148,   1073.17017
    783,   4584.05127,   90.8238297,   1094.34045
    784,   4584.05127,   136.235748,   1115.51062
    785,   4584.05127,   181.647659,   1136.68091
    786,   4584.05127,    227.05957,   1157.85107
    787,   4584.05127,   272.471497,   1179.02124
    788,   4584.05127,   317.883392,   1200.19153
    789,   4584.05127,   363.295319,   1221.36169
    790,   4584.05127,   408.707245,   1242.53186
    791,   4584.05127,   454.119141,   1263.70215
    792,   4584.05127,   499.531067,   1284.87231
    793,   4584.05127,   544.942993,    1306.0426
    794,   4584.05127,   590.354919,   1327.21277
    795,   4584.05127,   635.766785,   1348.38293
    796,   4584.05127,   681.178711,   1369.55322
    797,   4584.05127,   726.590637,   1390.72339
    798,   4584.05127,   772.002563,   1411.89368
    799,   4584.05127,    817.41449,   1433.06384
    800,   4584.05127,   862.826355,   1454.23401
    801,   4584.05127,   908.238281,    1475.4043
    802,   4584.05127,   953.650208,   1496.57446
    803,   4584.05127,   999.062134,   1517.74463
    804,   4584.05127,     1044.474,   1538.91492
    805,   4584.05127,   1089.88599,   1560.08508
    806,   4584.05127,   1135.29785,   1581.25537
    807,   4584.05127,   1180.70984,   1602.42554
    808,   4584.05127,    1226.1217,    1623.5957
    809,   4584.05127,   1271.53357,   1644.76599
    810,   4584.05127,   1316.94556,   1665.93616
    811,   4584.05127,   1362.35742,   1687.10632
    812,   4584.05127,   1407.76941,   1708.27661
    813,   4584.05127,   1453.18127,   1729.44678
    814,   4584.05127,   1498.59314,   1750.61707
    815,   4584.05127,   1544.00513,   1771.78723
    816,   4584.05127,   1589.41699,    1792.9574
    817,   4584.05127,   1634.82898,   1814.12769
    818,   4584.05127,   1680.24084,   1835.29785
    819,   4584.05127,   1725.65271,   1856.46814
    820,   4584.05127,    1771.0647,   1877.63831
    821,   4584.05127,   1816.47656,   1898.80847
    822,   4584.05127,   1861.88855,   1919.97876
    823,   4584.05127,   1907.30042,   1941.14893
    824,   4584.05127,   1952.71228,   1962.31909
    825,   4584.05127,   1998.12427,   1983.48938
    826,   4584.05127,   2043.53613,   2004.65955
    827,   4584.05127,     2088.948,   2025.82983
    828,   4584.05127,  -710.198975,   720.918091
    829,   4584.05127,  -665.811523,   741.610718
    830,   4584.05127,  -621.424072,   762.303345
    831,   4584.05127,  -577.036682,   782.995972
    832,   4584.05127,  -532.649231,   803.688599
    833,   4584.05127,   -488.26178,   824.381165
    834,   4584.05127,  -443.874359,   845.073792
    835,   4584.05127,  -399.486908,   865.766418
    836,   4584.05127,  -355.099487,   886.459045
    837,   4584.05127,  -310.712036,   907.151672
    838,   4584.05127,  -266.324615,   927.844299
    839,   4584.05127,   -221.93718,   948.536926
    840,   4584.05127,  -177.549744,   969.229553
    841,   4584.05127,  -133.162308,   989.922119
    842,   4584.05127,  -88.7748718,   1010.61475
    843,   4584.05127,  -44.3874359,   1031.30737
    844,   17009.2441,   2888.94629,   2398.77441
    845,   17060.8008,   2888.94629,   2398.77441
    846,   17112.3574,   2888.94629,   2398.77441
    847,   17163.9141,   2888.94629,   2398.77441
    848,   17215.4707,   2888.94629,   2398.77441
    849,   17267.0293,   2888.94629,   2398.77441
    850,   17318.5859,   2888.94629,   2398.77441
    851,   17370.1426,   2888.94629,   2398.77441
    852,   17421.6992,   2888.94629,   2398.77441
    853,   17473.2559,   2888.94629,   2398.77441
    854,   17524.8125,   2888.94629,   2398.77441
    855,   17576.3691,   2888.94629,   2398.77441
    856,   17627.9258,   2888.94629,   2398.77441
    857,   17679.4824,   2888.94629,   2398.77441
    858,   17731.0391,   2888.94629,   2398.77441
    859,   13658.0508,  -710.198975,   720.918091
    860,   13658.0508,  -665.811523,   741.610718
    861,   13658.0508,  -621.424072,   762.303345
    862,   13658.0508,  -577.036682,   782.995972
    863,   13658.0508,  -532.649231,   803.688599
    864,   13658.0508,   -488.26178,   824.381165
    865,   13658.0508,  -443.874359,   845.073792
    866,   13658.0508,  -399.486908,   865.766418
    867,   13658.0508,  -355.099487,   886.459045
    868,   13658.0508,  -310.712036,   907.151672
    869,   13658.0508,  -266.324615,   927.844299
    870,   13658.0508,   -221.93718,   948.536926
    871,   13658.0508,  -177.549744,   969.229553
    872,   13658.0508,  -133.162308,   989.922119
    873,   13658.0508,  -88.7748718,   1010.61475
    874,   13658.0508,  -44.3874359,   1031.30737
    875,   9121.05078,  -710.198975,   720.918091
    876,   9121.05078,  -665.811523,   741.610718
    877,   9121.05078,  -621.424072,   762.303345
    878,   9121.05078,  -577.036682,   782.995972
    879,   9121.05078,  -532.649231,   803.688599
    880,   9121.05078,   -488.26178,   824.381165
    881,   9121.05078,  -443.874359,   845.073792
    882,   9121.05078,  -399.486908,   865.766418
    883,   9121.05078,  -355.099487,   886.459045
    884,   9121.05078,  -310.712036,   907.151672
    885,   9121.05078,  -266.324615,   927.844299
    886,   9121.05078,   -221.93718,   948.536926
    887,   9121.05078,  -177.549744,   969.229553
    888,   9121.05078,  -133.162308,   989.922119
    889,   9121.05078,  -88.7748718,   1010.61475
    890,   9121.05078,  -44.3874359,   1031.30737
    891,   4635.60791,   2888.94629,   2398.77441
    892,   4687.16455,   2888.94629,   2398.77441
    893,   4738.72168,   2888.94629,   2398.77441
    894,   4790.27832,   2888.94629,   2398.77441
    895,   4841.83496,   2888.94629,   2398.77441
    896,   4893.39209,   2888.94629,   2398.77441
    897,   4944.94873,   2888.94629,   2398.77441
    898,   4996.50537,   2888.94629,   2398.77441
    899,    5048.0625,   2888.94629,   2398.77441
    900,   5099.61914,   2888.94629,   2398.77441
    901,   5151.17627,   2888.94629,   2398.77441
    902,   5202.73291,   2888.94629,   2398.77441
    903,   5254.28955,   2888.94629,   2398.77441
    904,   5305.84668,   2888.94629,   2398.77441
    905,   5357.40332,   2888.94629,   2398.77441
    906,    16184.335,   2888.94629,   2398.77441
    907,   16235.8916,   2888.94629,   2398.77441
    908,   16287.4492,   2888.94629,   2398.77441
    909,   16339.0059,   2888.94629,   2398.77441
    910,   16390.5625,   2888.94629,   2398.77441
    911,   16442.1191,   2888.94629,   2398.77441
    912,   16493.6758,   2888.94629,   2398.77441
    913,   16545.2324,   2888.94629,   2398.77441
    914,   16596.7891,   2888.94629,   2398.77441
    915,   16648.3457,   2888.94629,   2398.77441
    916,   16699.9043,   2888.94629,   2398.77441
    917,   16751.4609,   2888.94629,   2398.77441
    918,   16803.0176,   2888.94629,   2398.77441
    919,   16854.5742,   2888.94629,   2398.77441
    920,   16906.1309,   2888.94629,   2398.77441
    921,   15359.4258,   2888.94629,   2398.77441
    922,   15410.9824,   2888.94629,   2398.77441
    923,     15462.54,   2888.94629,   2398.77441
    924,   15514.0967,   2888.94629,   2398.77441
    925,   15565.6533,   2888.94629,   2398.77441
    926,     15617.21,   2888.94629,   2398.77441
    927,   15668.7666,   2888.94629,   2398.77441
    928,   15720.3242,   2888.94629,   2398.77441
    929,   15771.8809,   2888.94629,   2398.77441
    930,   15823.4375,   2888.94629,   2398.77441
    931,   15874.9941,   2888.94629,   2398.77441
    932,   15926.5508,   2888.94629,   2398.77441
    933,   15978.1074,   2888.94629,   2398.77441
    934,    16029.665,   2888.94629,   2398.77441
    935,   16081.2217,   2888.94629,   2398.77441
    936,   14534.5166,   2888.94629,   2398.77441
    937,   14586.0742,   2888.94629,   2398.77441
    938,   14637.6309,   2888.94629,   2398.77441
    939,   14689.1875,   2888.94629,   2398.77441
    940,   14740.7441,   2888.94629,   2398.77441
    941,   14792.3008,   2888.94629,   2398.77441
    942,   14843.8574,   2888.94629,   2398.77441
    943,    14895.415,   2888.94629,   2398.77441
    944,   14946.9717,   2888.94629,   2398.77441
    945,   14998.5283,   2888.94629,   2398.77441
    946,    15050.085,   2888.94629,   2398.77441
    947,   15101.6416,   2888.94629,   2398.77441
    948,   15153.1992,   2888.94629,   2398.77441
    949,   15204.7559,   2888.94629,   2398.77441
    950,   15256.3125,   2888.94629,   2398.77441
    951,   13709.6074,   2888.94629,   2398.77441
    952,    13761.165,   2888.94629,   2398.77441
    953,   13812.7217,   2888.94629,   2398.77441
    954,   13864.2783,   2888.94629,   2398.77441
    955,    13915.835,   2888.94629,   2398.77441
    956,   13967.3916,   2888.94629,   2398.77441
    957,   14018.9492,   2888.94629,   2398.77441
    958,   14070.5059,   2888.94629,   2398.77441
    959,   14122.0625,   2888.94629,   2398.77441
    960,   14173.6191,   2888.94629,   2398.77441
    961,   14225.1758,   2888.94629,   2398.77441
    962,   14276.7324,   2888.94629,   2398.77441
    963,     14328.29,   2888.94629,   2398.77441
    964,   14379.8467,   2888.94629,   2398.77441
    965,   14431.4033,   2888.94629,   2398.77441
    966,   12884.6992,   2888.94629,   2398.77441
    967,   12936.2559,   2888.94629,   2398.77441
    968,   12987.8125,   2888.94629,   2398.77441
    969,   13039.3691,   2888.94629,   2398.77441
    970,   13090.9258,   2888.94629,   2398.77441
    971,   13142.4824,   2888.94629,   2398.77441
    972,     13194.04,   2888.94629,   2398.77441
    973,   13245.5967,   2888.94629,   2398.77441
    974,   13297.1533,   2888.94629,   2398.77441
    975,     13348.71,   2888.94629,   2398.77441
    976,   13400.2666,   2888.94629,   2398.77441
    977,   13451.8242,   2888.94629,   2398.77441
    978,   13503.3809,   2888.94629,   2398.77441
    979,   13554.9375,   2888.94629,   2398.77441
    980,   13606.4941,   2888.94629,   2398.77441
    981,     12059.79,   2888.94629,   2398.77441
    982,   12111.3467,   2888.94629,   2398.77441
    983,   12162.9033,   2888.94629,   2398.77441
    984,     12214.46,   2888.94629,   2398.77441
    985,   12266.0166,   2888.94629,   2398.77441
    986,   12317.5742,   2888.94629,   2398.77441
    987,   12369.1309,   2888.94629,   2398.77441
    988,   12420.6875,   2888.94629,   2398.77441
    989,   12472.2441,   2888.94629,   2398.77441
    990,   12523.8008,   2888.94629,   2398.77441
    991,   12575.3574,   2888.94629,   2398.77441
    992,    12626.915,   2888.94629,   2398.77441
    993,   12678.4717,   2888.94629,   2398.77441
    994,   12730.0283,   2888.94629,   2398.77441
    995,    12781.585,   2888.94629,   2398.77441
    996,   11234.8809,   2888.94629,   2398.77441
    997,   11286.4375,   2888.94629,   2398.77441
    998,   11337.9941,   2888.94629,   2398.77441
    999,   11389.5508,   2888.94629,   2398.77441
   1000,   11441.1074,   2888.94629,   2398.77441
   1001,    11492.665,   2888.94629,   2398.77441
   1002,   11544.2217,   2888.94629,   2398.77441
   1003,   11595.7783,   2888.94629,   2398.77441
   1004,    11647.335,   2888.94629,   2398.77441
   1005,   11698.8916,   2888.94629,   2398.77441
   1006,   11750.4492,   2888.94629,   2398.77441
   1007,   11802.0059,   2888.94629,   2398.77441
   1008,   11853.5625,   2888.94629,   2398.77441
   1009,   11905.1191,   2888.94629,   2398.77441
   1010,   11956.6758,   2888.94629,   2398.77441
   1011,   10409.9717,   2888.94629,   2398.77441
   1012,   10461.5283,   2888.94629,   2398.77441
   1013,    10513.085,   2888.94629,   2398.77441
   1014,   10564.6416,   2888.94629,   2398.77441
   1015,   10616.1992,   2888.94629,   2398.77441
   1016,   10667.7559,   2888.94629,   2398.77441
   1017,   10719.3125,   2888.94629,   2398.77441
   1018,   10770.8691,   2888.94629,   2398.77441
   1019,   10822.4258,   2888.94629,   2398.77441
   1020,   10873.9824,   2888.94629,   2398.77441
   1021,     10925.54,   2888.94629,   2398.77441
   1022,   10977.0967,   2888.94629,   2398.77441
   1023,   11028.6533,   2888.94629,   2398.77441
   1024,     11080.21,   2888.94629,   2398.77441
   1025,   11131.7666,   2888.94629,   2398.77441
   1026,    9585.0625,   2888.94629,   2398.77441
   1027,   9636.61914,   2888.94629,   2398.77441
   1028,   9688.17578,   2888.94629,   2398.77441
   1029,   9739.73242,   2888.94629,   2398.77441
   1030,   9791.29004,   2888.94629,   2398.77441
   1031,   9842.84668,   2888.94629,   2398.77441
   1032,   9894.40332,   2888.94629,   2398.77441
   1033,   9945.95996,   2888.94629,   2398.77441
   1034,    9997.5166,   2888.94629,   2398.77441
   1035,   10049.0742,   2888.94629,   2398.77441
   1036,   10100.6309,   2888.94629,   2398.77441
   1037,   10152.1875,   2888.94629,   2398.77441
   1038,   10203.7441,   2888.94629,   2398.77441
   1039,   10255.3008,   2888.94629,   2398.77441
   1040,   10306.8574,   2888.94629,   2398.77441
   1041,   9172.60742,   2888.94629,   2398.77441
   1042,   9224.16504,   2888.94629,   2398.77441
   1043,   9275.72168,   2888.94629,   2398.77441
   1044,   9327.27832,   2888.94629,   2398.77441
   1045,   9378.83496,   2888.94629,   2398.77441
   1046,    9430.3916,   2888.94629,   2398.77441
   1047,   9481.94922,   2888.94629,   2398.77441
   1048,   8760.15332,   2888.94629,   2398.77441
   1049,   8811.70996,   2888.94629,   2398.77441
   1050,    8863.2666,   2888.94629,   2398.77441
   1051,   8914.82422,   2888.94629,   2398.77441
   1052,   8966.38086,   2888.94629,   2398.77441
   1053,    9017.9375,   2888.94629,   2398.77441
   1054,   9069.49414,   2888.94629,   2398.77441
   1055,   7935.24414,   2888.94629,   2398.77441
   1056,   7986.80127,   2888.94629,   2398.77441
   1057,   8038.35791,   2888.94629,   2398.77441
   1058,   8089.91455,   2888.94629,   2398.77441
   1059,   8141.47168,   2888.94629,   2398.77441
   1060,   8193.02832,   2888.94629,   2398.77441
   1061,   8244.58496,   2888.94629,   2398.77441
   1062,    8296.1416,   2888.94629,   2398.77441
   1063,   8347.69922,   2888.94629,   2398.77441
   1064,   8399.25586,   2888.94629,   2398.77441
   1065,    8450.8125,   2888.94629,   2398.77441
   1066,   8502.36914,   2888.94629,   2398.77441
   1067,   8553.92578,   2888.94629,   2398.77441
   1068,   8605.48242,   2888.94629,   2398.77441
   1069,   8657.04004,   2888.94629,   2398.77441
   1070,   7110.33496,   2888.94629,   2398.77441
   1071,   7161.89209,   2888.94629,   2398.77441
   1072,   7213.44873,   2888.94629,   2398.77441
   1073,   7265.00537,   2888.94629,   2398.77441
   1074,    7316.5625,   2888.94629,   2398.77441
   1075,   7368.11914,   2888.94629,   2398.77441
   1076,   7419.67627,   2888.94629,   2398.77441
   1077,   7471.23291,   2888.94629,   2398.77441
   1078,   7522.78955,   2888.94629,   2398.77441
   1079,   7574.34668,   2888.94629,   2398.77441
   1080,   7625.90332,   2888.94629,   2398.77441
   1081,   7677.45996,   2888.94629,   2398.77441
   1082,   7729.01709,   2888.94629,   2398.77441
   1083,   7780.57373,   2888.94629,   2398.77441
   1084,   7832.13037,   2888.94629,   2398.77441
   1085,   6285.42627,   2888.94629,   2398.77441
   1086,   6336.98291,   2888.94629,   2398.77441
   1087,   6388.53955,   2888.94629,   2398.77441
   1088,   6440.09668,   2888.94629,   2398.77441
   1089,   6491.65332,   2888.94629,   2398.77441
   1090,   6543.20996,   2888.94629,   2398.77441
   1091,   6594.76709,   2888.94629,   2398.77441
   1092,   6646.32373,   2888.94629,   2398.77441
   1093,   6697.88037,   2888.94629,   2398.77441
   1094,    6749.4375,   2888.94629,   2398.77441
   1095,   6800.99414,   2888.94629,   2398.77441
   1096,   6852.55127,   2888.94629,   2398.77441
   1097,   6904.10791,   2888.94629,   2398.77441
   1098,   6955.66455,   2888.94629,   2398.77441
   1099,   7007.22168,   2888.94629,   2398.77441
   1100,   5460.51709,   2888.94629,   2398.77441
   1101,   5512.07373,   2888.94629,   2398.77441
   1102,   5563.63037,   2888.94629,   2398.77441
   1103,    5615.1875,   2888.94629,   2398.77441
   1104,   5666.74414,   2888.94629,   2398.77441
   1105,   5718.30127,   2888.94629,   2398.77441
   1106,   5769.85791,   2888.94629,   2398.77441
   1107,   5821.41455,   2888.94629,   2398.77441
   1108,   5872.97168,   2888.94629,   2398.77441
   1109,   5924.52832,   2888.94629,   2398.77441
   1110,   5976.08496,   2888.94629,   2398.77441
   1111,   6027.64209,   2888.94629,   2398.77441
   1112,   6079.19873,   2888.94629,   2398.77441
   1113,   6130.75537,   2888.94629,   2398.77441
   1114,    6182.3125,   2888.94629,   2398.77441
   1115,   13658.0508,   45.4119148,   1073.17017
   1116,   13658.0508,   90.8238297,   1094.34045
   1117,   13658.0508,   136.235748,   1115.51062
   1118,   13658.0508,   181.647659,   1136.68091
   1119,   13658.0508,    227.05957,   1157.85107
   1120,   13658.0508,   272.471497,   1179.02124
   1121,   13658.0508,   317.883392,   1200.19153
   1122,   13658.0508,   363.295319,   1221.36169
   1123,   13658.0508,   408.707245,   1242.53186
   1124,   13658.0508,   454.119141,   1263.70215
   1125,   13658.0508,   499.531067,   1284.87231
   1126,   13658.0508,   544.942993,    1306.0426
   1127,   13658.0508,   590.354919,   1327.21277
   1128,   13658.0508,   635.766785,   1348.38293
   1129,   13658.0508,   681.178711,   1369.55322
   1130,   13658.0508,   726.590637,   1390.72339
   1131,   13658.0508,   772.002563,   1411.89368
   1132,   13658.0508,    817.41449,   1433.06384
   1133,   13658.0508,   862.826355,   1454.23401
   1134,   13658.0508,   908.238281,    1475.4043
   1135,   13658.0508,   953.650208,   1496.57446
   1136,   13658.0508,   999.062134,   1517.74463
   1137,   13658.0508,     1044.474,   1538.91492
   1138,   13658.0508,   1089.88599,   1560.08508
   1139,   13658.0508,   1135.29785,   1581.25537
   1140,   13658.0508,   1180.70984,   1602.42554
   1141,   13658.0508,    1226.1217,    1623.5957
   1142,   13658.0508,   1271.53357,   1644.76599
   1143,   13658.0508,   1316.94556,   1665.93616
   1144,   13658.0508,   1362.35742,   1687.10632
   1145,   13658.0508,   1407.76941,   1708.27661
   1146,   13658.0508,   1453.18127,   1729.44678
   1147,   13658.0508,   1498.59314,   1750.61707
   1148,   13658.0508,   1544.00513,   1771.78723
   1149,   13658.0508,   1589.41699,    1792.9574
   1150,   13658.0508,   1634.82898,   1814.12769
   1151,   13658.0508,   1680.24084,   1835.29785
   1152,   13658.0508,   1725.65271,   1856.46814
   1153,   13658.0508,    1771.0647,   1877.63831
   1154,   13658.0508,   1816.47656,   1898.80847
   1155,   13658.0508,   1861.88855,   1919.97876
   1156,   13658.0508,   1907.30042,   1941.14893
   1157,   13658.0508,   1952.71228,   1962.31909
   1158,   13658.0508,   1998.12427,   1983.48938
   1159,   13658.0508,   2043.53613,   2004.65955
   1160,   13658.0508,     2088.948,   2025.82983
   1161,   9121.05078,   45.4119148,   1073.17017
   1162,   9121.05078,   90.8238297,   1094.34045
   1163,   9121.05078,   136.235748,   1115.51062
   1164,   9121.05078,   181.647659,   1136.68091
   1165,   9121.05078,    227.05957,   1157.85107
   1166,   9121.05078,   272.471497,   1179.02124
   1167,   9121.05078,   317.883392,   1200.19153
   1168,   9121.05078,   363.295319,   1221.36169
   1169,   9121.05078,   408.707245,   1242.53186
   1170,   9121.05078,   454.119141,   1263.70215
   1171,   9121.05078,   499.531067,   1284.87231
   1172,   9121.05078,   544.942993,    1306.0426
   1173,   9121.05078,   590.354919,   1327.21277
   1174,   9121.05078,   635.766785,   1348.38293
   1175,   9121.05078,   681.178711,   1369.55322
   1176,   9121.05078,   726.590637,   1390.72339
   1177,   9121.05078,   772.002563,   1411.89368
   1178,   9121.05078,    817.41449,   1433.06384
   1179,   9121.05078,   862.826355,   1454.23401
   1180,   9121.05078,   908.238281,    1475.4043
   1181,   9121.05078,   953.650208,   1496.57446
   1182,   9121.05078,   999.062134,   1517.74463
   1183,   9121.05078,     1044.474,   1538.91492
   1184,   9121.05078,   1089.88599,   1560.08508
   1185,   9121.05078,   1135.29785,   1581.25537
   1186,   9121.05078,   1180.70984,   1602.42554
   1187,   9121.05078,    1226.1217,    1623.5957
   1188,   9121.05078,   1271.53357,   1644.76599
   1189,   9121.05078,   1316.94556,   1665.93616
   1190,   9121.05078,   1362.35742,   1687.10632
   1191,   9121.05078,   1407.76941,   1708.27661
   1192,   9121.05078,   1453.18127,   1729.44678
   1193,   9121.05078,   1498.59314,   1750.61707
   1194,   9121.05078,   1544.00513,   1771.78723
   1195,   9121.05078,   1589.41699,    1792.9574
   1196,   9121.05078,   1634.82898,   1814.12769
   1197,   9121.05078,   1680.24084,   1835.29785
   1198,   9121.05078,   1725.65271,   1856.46814
   1199,   9121.05078,    1771.0647,   1877.63831
   1200,   9121.05078,   1816.47656,   1898.80847
   1201,   9121.05078,   1861.88855,   1919.97876
   1202,   9121.05078,   1907.30042,   1941.14893
   1203,   9121.05078,   1952.71228,   1962.31909
   1204,   9121.05078,   1998.12427,   1983.48938
   1205,   9121.05078,   2043.53613,   2004.65955
   1206,   9121.05078,     2088.948,   2025.82983
   1207,   13658.0508,   2178.74731,   2067.69263
   1208,   13658.0508,   2223.13477,   2088.38525
   1209,   13658.0508,   2267.52222,   2109.07788
   1210,   13658.0508,   2311.90967,   2129.77051
   1211,   13658.0508,   2356.29712,   2150.46313
   1212,   13658.0508,   2400.68457,   2171.15576
   1213,   13658.0508,   2445.07202,   2191.84839
   1214,   13658.0508,   2489.45947,   2212.54102
   1215,   13658.0508,   2533.84692,   2233.23364
   1216,   13658.0508,   2578.23438,   2253.92627
   1217,   13658.0508,   2622.62183,    2274.6189
   1218,   13658.0508,   2667.00928,   2295.31152
   1219,   13658.0508,   2711.39673,   2316.00415
   1220,   13658.0508,   2755.78418,   2336.69678
   1221,   13658.0508,   2800.17163,   2357.38916
   1222,   13658.0508,   2844.55884,   2378.08179
   1223,   9121.05078,   2178.74731,   2067.69263
   1224,   9121.05078,   2223.13477,   2088.38525
   1225,   9121.05078,   2267.52222,   2109.07788
   1226,   9121.05078,   2311.90967,   2129.77051
   1227,   9121.05078,   2356.29712,   2150.46313
   1228,   9121.05078,   2400.68457,   2171.15576
   1229,   9121.05078,   2445.07202,   2191.84839
   1230,   9121.05078,   2489.45947,   2212.54102
   1231,   9121.05078,   2533.84692,   2233.23364
   1232,   9121.05078,   2578.23438,   2253.92627
   1233,   9121.05078,   2622.62183,    2274.6189
   1234,   9121.05078,   2667.00928,   2295.31152
   1235,   9121.05078,   2711.39673,   2316.00415
   1236,   9121.05078,   2755.78418,   2336.69678
   1237,   9121.05078,   2800.17163,   2357.38916
   1238,   9121.05078,   2844.55884,   2378.08179
   1239,        9074.,   48.5081825,    915.40387
   1240,        9074.,   97.0163651,   903.807739
   1241,        9074.,   145.524551,   892.211609
   1242,        9074.,    194.03273,   880.615479
   1243,        9074.,   242.540909,   869.019348
   1244,        9074.,   291.049103,   857.423157
   1245,        9074.,   339.557281,   845.827026
   1246,        9074.,    388.06546,   834.230896
   1247,        9074.,   436.573639,   822.634766
   1248,        9074.,   485.081818,   811.038635
   1249,        9074.,   533.590027,   799.442505
   1250,        9074.,   582.098206,   787.846375
   1251,        9074.,   630.606384,   776.250244
   1252,        9074.,   679.114563,   764.654114
   1253,        9074.,   727.622742,   753.057983
   1254,        9074.,    776.13092,   741.461792
   1255,        9074.,   824.639099,   729.865662
   1256,        9074.,   873.147278,   718.269531
   1257,        9074.,   921.655457,   706.673401
   1258,        9074.,   970.163635,   695.077271
   1259,        9074.,   1018.67181,    683.48114
   1260,        9074.,   1067.18005,    671.88501
   1261,        9074.,   1115.68823,   660.288879
   1262,        9074.,   1164.19641,   648.692749
   1263,        9074.,   1212.70459,   637.096619
   1264,        9074.,   1261.21277,   625.500427
   1265,        9074.,   1309.72095,   613.904297
   1266,        9074.,   1358.22913,   602.308167
   1267,        9074.,    1406.7373,   590.712036
   1268,        9074.,   1455.24548,   579.115906
   1269,        9074.,   1503.75366,   567.519775
   1270,        9074.,   1552.26184,   555.923645
   1271,        9074.,   1600.77002,   544.327515
   1272,        9074.,    1649.2782,   532.731384
   1273,        9074.,   1697.78638,   521.135254
   1274,        9074.,   1746.29456,   509.539093
   1275,        9074.,   1794.80273,   497.942963
   1276,        9074.,   1843.31091,   486.346832
   1277,        9074.,   1891.81909,   474.750671
   1278,        9074.,   1940.32727,   463.154541
   1279,        9074.,   1988.83545,   451.558411
   1280,        9074.,   2037.34363,    439.96228
   1281,        9074.,   2085.85181,    428.36615
   1282,        9074.,   2134.36011,   466.170898
   1283,        9074.,   2134.36011,   515.571838
   1284,        9074.,   2134.36011,   564.972717
   1285,        9074.,   2134.36011,   614.373657
   1286,        9074.,   2134.36011,   663.774536
   1287,        9074.,   2134.36011,   713.175476
   1288,        9074.,   2134.36011,   762.576355
   1289,        9074.,   2134.36011,   811.977295
   1290,        9074.,   2134.36011,   861.378174
   1291,        9074.,   2134.36011,   910.779114
   1292,        9074.,   2134.36011,   960.179993
   1293,        9074.,   2134.36011,   1009.58093
   1294,        9074.,   2134.36011,   1058.98181
   1295,        9074.,   2134.36011,   1108.38269
   1296,        9074.,   2134.36011,   1157.78369
   1297,        9074.,   2134.36011,   1207.18457
   1298,        9074.,   2134.36011,   1256.58545
   1299,        9074.,   2134.36011,   1305.98633
   1300,        9074.,   2134.36011,   1355.38733
   1301,        9074.,   2134.36011,   1404.78821
   1302,        9074.,   2134.36011,   1454.18909
   1303,        9074.,   2134.36011,   1503.58997
   1304,        9074.,   2134.36011,   1552.99097
   1305,        9074.,   2134.36011,   1602.39185
   1306,        9074.,   2134.36011,   1651.79272
   1307,        9074.,   2134.36011,    1701.1936
   1308,        9074.,   2134.36011,    1750.5946
   1309,        9074.,   2134.36011,   1799.99548
   1310,        9074.,   2134.36011,   1849.39636
   1311,        9074.,   2134.36011,   1898.79724
   1312,        9074.,   2134.36011,   1948.19824
   1313,        9074.,   2134.36011,   1997.59912
   1314,        9074.,           0.,   968.666687
   1315,        9074.,           0.,   1010.33331
   1316,        9074.,           0.,   48.7894745
   1317,        9074.,           0.,    97.578949
   1318,        9074.,           0.,   146.368423
   1319,        9074.,           0.,   195.157898
   1320,        9074.,           0.,   243.947372
   1321,        9074.,           0.,   292.736847
   1322,        9074.,           0.,   341.526306
   1323,        9074.,           0.,   390.315796
   1324,        9074.,           0.,   439.105255
   1325,        9074.,           0.,   487.894745
   1326,        9074.,           0.,   536.684204
   1327,        9074.,           0.,   585.473694
   1328,        9074.,           0.,   634.263184
   1329,        9074.,           0.,   683.052612
   1330,        9074.,           0.,   731.842102
   1331,        9074.,           0.,   780.631592
   1332,        9074.,           0.,   829.421082
   1333,        9074.,           0.,    878.21051
   1334,        9074.,   2134.36011,   52.0962486
   1335,        9074.,   2134.36011,   104.192497
   1336,        9074.,   2134.36011,   156.288757
   1337,        9074.,   2134.36011,   208.384995
   1338,        9074.,   2134.36011,   260.481262
   1339,        9074.,   2134.36011,   312.577515
   1340,        9074.,   2134.36011,   364.673737
   1341,           0.,   48.5081825,    915.40387
   1342,           0.,   97.0163651,   903.807739
   1343,           0.,   145.524551,   892.211609
   1344,           0.,    194.03273,   880.615479
   1345,           0.,   242.540909,   869.019348
   1346,           0.,   291.049103,   857.423157
   1347,           0.,   339.557281,   845.827026
   1348,           0.,    388.06546,   834.230896
   1349,           0.,   436.573639,   822.634766
   1350,           0.,   485.081818,   811.038635
   1351,           0.,   533.590027,   799.442505
   1352,           0.,   582.098206,   787.846375
   1353,           0.,   630.606384,   776.250244
   1354,           0.,   679.114563,   764.654114
   1355,           0.,   727.622742,   753.057983
   1356,           0.,    776.13092,   741.461792
   1357,           0.,   824.639099,   729.865662
   1358,           0.,   873.147278,   718.269531
   1359,           0.,   921.655457,   706.673401
   1360,           0.,   970.163635,   695.077271
   1361,           0.,   1018.67181,    683.48114
   1362,           0.,   1067.18005,    671.88501
   1363,           0.,   1115.68823,   660.288879
   1364,           0.,   1164.19641,   648.692749
   1365,           0.,   1212.70459,   637.096619
   1366,           0.,   1261.21277,   625.500427
   1367,           0.,   1309.72095,   613.904297
   1368,           0.,   1358.22913,   602.308167
   1369,           0.,    1406.7373,   590.712036
   1370,           0.,   1455.24548,   579.115906
   1371,           0.,   1503.75366,   567.519775
   1372,           0.,   1552.26184,   555.923645
   1373,           0.,   1600.77002,   544.327515
   1374,           0.,    1649.2782,   532.731384
   1375,           0.,   1697.78638,   521.135254
   1376,           0.,   1746.29456,   509.539093
   1377,           0.,   1794.80273,   497.942963
   1378,           0.,   1843.31091,   486.346832
   1379,           0.,   1891.81909,   474.750671
   1380,           0.,   1940.32727,   463.154541
   1381,           0.,   1988.83545,   451.558411
   1382,           0.,   2037.34363,    439.96228
   1383,           0.,   2085.85181,    428.36615
   1384,           0.,   2134.36011,   466.170898
   1385,           0.,   2134.36011,   515.571838
   1386,           0.,   2134.36011,   564.972717
   1387,           0.,   2134.36011,   614.373657
   1388,           0.,   2134.36011,   663.774536
   1389,           0.,   2134.36011,   713.175476
   1390,           0.,   2134.36011,   762.576355
   1391,           0.,   2134.36011,   811.977295
   1392,           0.,   2134.36011,   861.378174
   1393,           0.,   2134.36011,   910.779114
   1394,           0.,   2134.36011,   960.179993
   1395,           0.,   2134.36011,   1009.58093
   1396,           0.,   2134.36011,   1058.98181
   1397,           0.,   2134.36011,   1108.38269
   1398,           0.,   2134.36011,   1157.78369
   1399,           0.,   2134.36011,   1207.18457
   1400,           0.,   2134.36011,   1256.58545
   1401,           0.,   2134.36011,   1305.98633
   1402,           0.,   2134.36011,   1355.38733
   1403,           0.,   2134.36011,   1404.78821
   1404,           0.,   2134.36011,   1454.18909
   1405,           0.,   2134.36011,   1503.58997
   1406,           0.,   2134.36011,   1552.99097
   1407,           0.,   2134.36011,   1602.39185
   1408,           0.,   2134.36011,   1651.79272
   1409,           0.,   2134.36011,    1701.1936
   1410,           0.,   2134.36011,    1750.5946
   1411,           0.,   2134.36011,   1799.99548
   1412,           0.,   2134.36011,   1849.39636
   1413,           0.,   2134.36011,   1898.79724
   1414,           0.,   2134.36011,   1948.19824
   1415,           0.,   2134.36011,   1997.59912
   1416,           0.,           0.,   968.666687
   1417,           0.,           0.,   1010.33331
   1418,           0.,           0.,   48.7894745
   1419,           0.,           0.,    97.578949
   1420,           0.,           0.,   146.368423
   1421,           0.,           0.,   195.157898
   1422,           0.,           0.,   243.947372
   1423,           0.,           0.,   292.736847
   1424,           0.,           0.,   341.526306
   1425,           0.,           0.,   390.315796
   1426,           0.,           0.,   439.105255
   1427,           0.,           0.,   487.894745
   1428,           0.,           0.,   536.684204
   1429,           0.,           0.,   585.473694
   1430,           0.,           0.,   634.263184
   1431,           0.,           0.,   683.052612
   1432,           0.,           0.,   731.842102
   1433,           0.,           0.,   780.631592
   1434,           0.,           0.,   829.421082
   1435,           0.,           0.,    878.21051
   1436,           0.,   2134.36011,   52.0962486
   1437,           0.,   2134.36011,   104.192497
   1438,           0.,   2134.36011,   156.288757
   1439,           0.,   2134.36011,   208.384995
   1440,           0.,   2134.36011,   260.481262
   1441,           0.,   2134.36011,   312.577515
   1442,           0.,   2134.36011,   364.673737
   1443,        4537.,   48.5081825,    915.40387
   1444,        4537.,   97.0163651,   903.807739
   1445,        4537.,   145.524551,   892.211609
   1446,        4537.,    194.03273,   880.615479
   1447,        4537.,   242.540909,   869.019348
   1448,        4537.,   291.049103,   857.423157
   1449,        4537.,   339.557281,   845.827026
   1450,        4537.,    388.06546,   834.230896
   1451,        4537.,   436.573639,   822.634766
   1452,        4537.,   485.081818,   811.038635
   1453,        4537.,   533.590027,   799.442505
   1454,        4537.,   582.098206,   787.846375
   1455,        4537.,   630.606384,   776.250244
   1456,        4537.,   679.114563,   764.654114
   1457,        4537.,   727.622742,   753.057983
   1458,        4537.,    776.13092,   741.461792
   1459,        4537.,   824.639099,   729.865662
   1460,        4537.,   873.147278,   718.269531
   1461,        4537.,   921.655457,   706.673401
   1462,        4537.,   970.163635,   695.077271
   1463,        4537.,   1018.67181,    683.48114
   1464,        4537.,   1067.18005,    671.88501
   1465,        4537.,   1115.68823,   660.288879
   1466,        4537.,   1164.19641,   648.692749
   1467,        4537.,   1212.70459,   637.096619
   1468,        4537.,   1261.21277,   625.500427
   1469,        4537.,   1309.72095,   613.904297
   1470,        4537.,   1358.22913,   602.308167
   1471,        4537.,    1406.7373,   590.712036
   1472,        4537.,   1455.24548,   579.115906
   1473,        4537.,   1503.75366,   567.519775
   1474,        4537.,   1552.26184,   555.923645
   1475,        4537.,   1600.77002,   544.327515
   1476,        4537.,    1649.2782,   532.731384
   1477,        4537.,   1697.78638,   521.135254
   1478,        4537.,   1746.29456,   509.539093
   1479,        4537.,   1794.80273,   497.942963
   1480,        4537.,   1843.31091,   486.346832
   1481,        4537.,   1891.81909,   474.750671
   1482,        4537.,   1940.32727,   463.154541
   1483,        4537.,   1988.83545,   451.558411
   1484,        4537.,   2037.34363,    439.96228
   1485,        4537.,   2085.85181,    428.36615
   1486,        4537.,   2134.36011,   466.170898
   1487,        4537.,   2134.36011,   515.571838
   1488,        4537.,   2134.36011,   564.972717
   1489,        4537.,   2134.36011,   614.373657
   1490,        4537.,   2134.36011,   663.774536
   1491,        4537.,   2134.36011,   713.175476
   1492,        4537.,   2134.36011,   762.576355
   1493,        4537.,   2134.36011,   811.977295
   1494,        4537.,   2134.36011,   861.378174
   1495,        4537.,   2134.36011,   910.779114
   1496,        4537.,   2134.36011,   960.179993
   1497,        4537.,   2134.36011,   1009.58093
   1498,        4537.,   2134.36011,   1058.98181
   1499,        4537.,   2134.36011,   1108.38269
   1500,        4537.,   2134.36011,   1157.78369
   1501,        4537.,   2134.36011,   1207.18457
   1502,        4537.,   2134.36011,   1256.58545
   1503,        4537.,   2134.36011,   1305.98633
   1504,        4537.,   2134.36011,   1355.38733
   1505,        4537.,   2134.36011,   1404.78821
   1506,        4537.,   2134.36011,   1454.18909
   1507,        4537.,   2134.36011,   1503.58997
   1508,        4537.,   2134.36011,   1552.99097
   1509,        4537.,   2134.36011,   1602.39185
   1510,        4537.,   2134.36011,   1651.79272
   1511,        4537.,   2134.36011,    1701.1936
   1512,        4537.,   2134.36011,    1750.5946
   1513,        4537.,   2134.36011,   1799.99548
   1514,        4537.,   2134.36011,   1849.39636
   1515,        4537.,   2134.36011,   1898.79724
   1516,        4537.,   2134.36011,   1948.19824
   1517,        4537.,   2134.36011,   1997.59912
   1518,        4537.,           0.,   968.666687
   1519,        4537.,           0.,   1010.33331
   1520,        4537.,           0.,   48.7894745
   1521,        4537.,           0.,    97.578949
   1522,        4537.,           0.,   146.368423
   1523,        4537.,           0.,   195.157898
   1524,        4537.,           0.,   243.947372
   1525,        4537.,           0.,   292.736847
   1526,        4537.,           0.,   341.526306
   1527,        4537.,           0.,   390.315796
   1528,        4537.,           0.,   439.105255
   1529,        4537.,           0.,   487.894745
   1530,        4537.,           0.,   536.684204
   1531,        4537.,           0.,   585.473694
   1532,        4537.,           0.,   634.263184
   1533,        4537.,           0.,   683.052612
   1534,        4537.,           0.,   731.842102
   1535,        4537.,           0.,   780.631592
   1536,        4537.,           0.,   829.421082
   1537,        4537.,           0.,    878.21051
   1538,        4537.,   2134.36011,   52.0962486
   1539,        4537.,   2134.36011,   104.192497
   1540,        4537.,   2134.36011,   156.288757
   1541,        4537.,   2134.36011,   208.384995
   1542,        4537.,   2134.36011,   260.481262
   1543,        4537.,   2134.36011,   312.577515
   1544,        4537.,   2134.36011,   364.673737
   1545,       13611.,   48.5081825,    915.40387
   1546,       13611.,   97.0163651,   903.807739
   1547,       13611.,   145.524551,   892.211609
   1548,       13611.,    194.03273,   880.615479
   1549,       13611.,   242.540909,   869.019348
   1550,       13611.,   291.049103,   857.423157
   1551,       13611.,   339.557281,   845.827026
   1552,       13611.,    388.06546,   834.230896
   1553,       13611.,   436.573639,   822.634766
   1554,       13611.,   485.081818,   811.038635
   1555,       13611.,   533.590027,   799.442505
   1556,       13611.,   582.098206,   787.846375
   1557,       13611.,   630.606384,   776.250244
   1558,       13611.,   679.114563,   764.654114
   1559,       13611.,   727.622742,   753.057983
   1560,       13611.,    776.13092,   741.461792
   1561,       13611.,   824.639099,   729.865662
   1562,       13611.,   873.147278,   718.269531
   1563,       13611.,   921.655457,   706.673401
   1564,       13611.,   970.163635,   695.077271
   1565,       13611.,   1018.67181,    683.48114
   1566,       13611.,   1067.18005,    671.88501
   1567,       13611.,   1115.68823,   660.288879
   1568,       13611.,   1164.19641,   648.692749
   1569,       13611.,   1212.70459,   637.096619
   1570,       13611.,   1261.21277,   625.500427
   1571,       13611.,   1309.72095,   613.904297
   1572,       13611.,   1358.22913,   602.308167
   1573,       13611.,    1406.7373,   590.712036
   1574,       13611.,   1455.24548,   579.115906
   1575,       13611.,   1503.75366,   567.519775
   1576,       13611.,   1552.26184,   555.923645
   1577,       13611.,   1600.77002,   544.327515
   1578,       13611.,    1649.2782,   532.731384
   1579,       13611.,   1697.78638,   521.135254
   1580,       13611.,   1746.29456,   509.539093
   1581,       13611.,   1794.80273,   497.942963
   1582,       13611.,   1843.31091,   486.346832
   1583,       13611.,   1891.81909,   474.750671
   1584,       13611.,   1940.32727,   463.154541
   1585,       13611.,   1988.83545,   451.558411
   1586,       13611.,   2037.34363,    439.96228
   1587,       13611.,   2085.85181,    428.36615
   1588,       13611.,   2134.36011,   466.170898
   1589,       13611.,   2134.36011,   515.571838
   1590,       13611.,   2134.36011,   564.972717
   1591,       13611.,   2134.36011,   614.373657
   1592,       13611.,   2134.36011,   663.774536
   1593,       13611.,   2134.36011,   713.175476
   1594,       13611.,   2134.36011,   762.576355
   1595,       13611.,   2134.36011,   811.977295
   1596,       13611.,   2134.36011,   861.378174
   1597,       13611.,   2134.36011,   910.779114
   1598,       13611.,   2134.36011,   960.179993
   1599,       13611.,   2134.36011,   1009.58093
   1600,       13611.,   2134.36011,   1058.98181
   1601,       13611.,   2134.36011,   1108.38269
   1602,       13611.,   2134.36011,   1157.78369
   1603,       13611.,   2134.36011,   1207.18457
   1604,       13611.,   2134.36011,   1256.58545
   1605,       13611.,   2134.36011,   1305.98633
   1606,       13611.,   2134.36011,   1355.38733
   1607,       13611.,   2134.36011,   1404.78821
   1608,       13611.,   2134.36011,   1454.18909
   1609,       13611.,   2134.36011,   1503.58997
   1610,       13611.,   2134.36011,   1552.99097
   1611,       13611.,   2134.36011,   1602.39185
   1612,       13611.,   2134.36011,   1651.79272
   1613,       13611.,   2134.36011,    1701.1936
   1614,       13611.,   2134.36011,    1750.5946
   1615,       13611.,   2134.36011,   1799.99548
   1616,       13611.,   2134.36011,   1849.39636
   1617,       13611.,   2134.36011,   1898.79724
   1618,       13611.,   2134.36011,   1948.19824
   1619,       13611.,   2134.36011,   1997.59912
   1620,       13611.,           0.,   968.666687
   1621,       13611.,           0.,   1010.33331
   1622,       13611.,           0.,   48.7894745
   1623,       13611.,           0.,    97.578949
   1624,       13611.,           0.,   146.368423
   1625,       13611.,           0.,   195.157898
   1626,       13611.,           0.,   243.947372
   1627,       13611.,           0.,   292.736847
   1628,       13611.,           0.,   341.526306
   1629,       13611.,           0.,   390.315796
   1630,       13611.,           0.,   439.105255
   1631,       13611.,           0.,   487.894745
   1632,       13611.,           0.,   536.684204
   1633,       13611.,           0.,   585.473694
   1634,       13611.,           0.,   634.263184
   1635,       13611.,           0.,   683.052612
   1636,       13611.,           0.,   731.842102
   1637,       13611.,           0.,   780.631592
   1638,       13611.,           0.,   829.421082
   1639,       13611.,           0.,    878.21051
   1640,       13611.,   2134.36011,   52.0962486
   1641,       13611.,   2134.36011,   104.192497
   1642,       13611.,   2134.36011,   156.288757
   1643,       13611.,   2134.36011,   208.384995
   1644,       13611.,   2134.36011,   260.481262
   1645,       13611.,   2134.36011,   312.577515
   1646,       13611.,   2134.36011,   364.673737
*Element, type=B31
 1,   1,  91
 2,  91,  92
 3,  92,  93
 4,  93,  94
 5,  94,  95
 6,  95,  96
 7,  96,  97
 8,  97,  98
 9,  98,  99
10,  99, 100
11, 100, 101
12, 101, 102
13, 102, 103
14, 103, 104
15, 104, 105
16, 105, 106
17, 106, 107
18, 107, 108
19, 108, 109
20, 109, 110
21, 110, 111
22, 111, 112
23, 112, 113
24, 113, 114
25, 114, 115
26, 115, 116
27, 116, 117
28, 117, 118
29, 118, 119
30, 119, 120
31, 120, 121
32, 121, 122
33, 122, 123
34, 123, 124
35, 124, 125
36, 125, 126
37, 126, 127
38, 127, 128
39, 128, 129
40, 129, 130
41, 130, 131
42, 131, 132
43, 132, 133
44, 133,   2
45,   2, 134
46, 134, 135
47, 135, 136
48, 136, 137
49, 137, 138
50, 138, 139
51, 139, 140
52, 140, 141
53, 141, 142
54, 142, 143
55, 143, 144
56, 144, 145
57, 145, 146
58, 146, 147
59, 147, 148
60, 148, 149
61, 149, 150
62, 150, 151
63, 151, 152
64, 152, 153
65, 153, 154
66, 154, 155
67, 155, 156
68, 156, 157
69, 157, 158
70, 158, 159
71, 159, 160
72, 160, 161
73, 161, 162
74, 162, 163
75, 163, 164
76, 164, 165
77, 165,   3
78,   1, 166
79, 166, 167
80, 167,   4
 81,   5, 168
 82, 168, 169
 83, 169, 170
 84, 170, 171
 85, 171, 172
 86, 172, 173
 87, 173, 174
 88, 174, 175
 89, 175, 176
 90, 176, 177
 91, 177, 178
 92, 178, 179
 93, 179, 180
 94, 180, 181
 95, 181, 182
 96, 182, 183
 97, 183, 184
 98, 184, 185
 99, 185,   1
100,   6, 186
101, 186, 187
102, 187, 188
103, 188, 189
104, 189, 190
105, 190, 191
106, 191, 192
107, 192,   2
108,   7, 193
109, 193, 194
110, 194, 195
111, 195, 196
112, 196, 197
113, 197, 198
114, 198, 199
115, 199,   8
116,   9, 200
117, 200, 201
118, 201, 202
119, 202, 203
120, 203, 204
121, 204, 205
122, 205, 206
123, 206, 207
124, 207, 208
125, 208, 209
126, 209, 210
127, 210, 211
128, 211, 212
129, 212, 213
130, 213, 214
131, 214, 215
132, 215,   8
133,  10, 216
134, 216, 217
135, 217, 218
136, 218, 219
137, 219, 220
138, 220, 221
139, 221, 222
140, 222, 223
141, 223, 224
142, 224, 225
143, 225, 226
144, 226, 227
145, 227, 228
146, 228, 229
147, 229, 230
148, 230, 231
149, 231, 232
150, 232, 233
151, 233, 234
152, 234, 235
153, 235, 236
154, 236, 237
155, 237, 238
156, 238, 239
157, 239, 240
158, 240, 241
159, 241, 242
160, 242, 243
161, 243, 244
162, 244, 245
163, 245, 246
164, 246, 247
165, 247, 248
166, 248, 249
167, 249, 250
168, 250, 251
169, 251, 252
170, 252, 253
171, 253, 254
172, 254, 255
173, 255, 256
174, 256, 257
175, 257, 258
176, 258, 259
177, 259, 260
178, 260, 261
179, 261,   9
180,  11, 262
181, 262, 263
182, 263, 264
183, 264, 265
184, 265, 266
185, 266, 267
186, 267, 268
187, 268, 269
188, 269, 270
189, 270, 271
190, 271, 272
191, 272, 273
192, 273, 274
193, 274, 275
194, 275, 276
195, 276, 277
196, 277,  10
197,  12, 278
198, 278, 279
199, 279, 280
200, 280, 281
201, 281, 282
202, 282, 283
203, 283, 284
204, 284,  11
205,  13, 285
206, 285, 286
207, 286, 287
208, 287, 288
209, 288, 289
210, 289, 290
211, 290, 291
212, 291, 292
213, 292, 293
214, 293, 294
215, 294, 295
216, 295, 296
217, 296, 297
218, 297, 298
219, 298, 299
220, 299,  12
221,  14, 300
222, 300, 301
223, 301, 302
224, 302, 303
225, 303, 304
226, 304, 305
227, 305, 306
228, 306, 307
229, 307, 308
230, 308, 309
231, 309, 310
232, 310, 311
233, 311, 312
234, 312, 313
235, 313, 314
236, 314,  13
237,  15, 315
238, 315, 316
239, 316, 317
240, 317, 318
241, 318, 319
242, 319, 320
243, 320, 321
244, 321, 322
245, 322, 323
246, 323, 324
247, 324, 325
248, 325, 326
249, 326, 327
250, 327, 328
251, 328, 329
252, 329,  14
253,  16, 330
254, 330, 331
255, 331, 332
256, 332, 333
257, 333, 334
258, 334, 335
259, 335, 336
260, 336, 337
261, 337, 338
262, 338, 339
263, 339, 340
264, 340, 341
265, 341, 342
266, 342, 343
267, 343, 344
268, 344,  15
269,  17, 345
270, 345, 346
271, 346, 347
272, 347, 348
273, 348, 349
274, 349, 350
275, 350, 351
276, 351, 352
277, 352, 353
278, 353, 354
279, 354, 355
280, 355, 356
281, 356, 357
282, 357, 358
283, 358, 359
284, 359,  16
285,  18, 360
286, 360, 361
287, 361, 362
288, 362, 363
289, 363, 364
290, 364, 365
291, 365, 366
292, 366, 367
293, 367, 368
294, 368, 369
295, 369, 370
296, 370, 371
297, 371, 372
298, 372, 373
299, 373, 374
300, 374,  17
301,  19, 375
302, 375, 376
303, 376, 377
304, 377, 378
305, 378, 379
306, 379, 380
307, 380, 381
308, 381, 382
309, 382, 383
310, 383, 384
311, 384, 385
312, 385, 386
313, 386, 387
314, 387, 388
315, 388, 389
316, 389,  18
317,  20, 390
318, 390, 391
319, 391, 392
320, 392, 393
321, 393, 394
322, 394, 395
323, 395, 396
324, 396, 397
325, 397, 398
326, 398, 399
327, 399, 400
328, 400, 401
329, 401, 402
330, 402, 403
331, 403, 404
332, 404,  19
333,  21, 405
334, 405, 406
335, 406, 407
336, 407, 408
337, 408, 409
338, 409, 410
339, 410, 411
340, 411, 412
341, 412, 413
342, 413, 414
343, 414, 415
344, 415, 416
345, 416, 417
346, 417, 418
347, 418, 419
348, 419,  20
349,  22, 420
350, 420, 421
351, 421, 422
352, 422, 423
353, 423, 424
354, 424, 425
355, 425, 426
356, 426, 427
357, 427, 428
358, 428, 429
359, 429, 430
360, 430, 431
361, 431, 432
362, 432, 433
363, 433, 434
364, 434,  21
365,  23, 435
366, 435, 436
367, 436, 437
368, 437, 438
369, 438, 439
370, 439, 440
371, 440, 441
372, 441,  22
373,  24, 442
374, 442, 443
375, 443, 444
376, 444, 445
377, 445, 446
378, 446, 447
379, 447, 448
380, 448,  23
381,  25, 449
382, 449, 450
383, 450, 451
384, 451, 452
385, 452, 453
386, 453, 454
387, 454, 455
388, 455, 456
389, 456, 457
390, 457, 458
391, 458, 459
392, 459, 460
393, 460, 461
394, 461, 462
395, 462, 463
396, 463,  24
397,  26, 464
398, 464, 465
399, 465, 466
400, 466, 467
401, 467, 468
402, 468, 469
403, 469, 470
404, 470, 471
405, 471, 472
406, 472, 473
407, 473, 474
408, 474, 475
409, 475, 476
410, 476, 477
411, 477, 478
412, 478,  25
413,  27, 479
414, 479, 480
415, 480, 481
416, 481, 482
417, 482, 483
418, 483, 484
419, 484, 485
420, 485, 486
421, 486, 487
422, 487, 488
423, 488, 489
424, 489, 490
425, 490, 491
426, 491, 492
427, 492, 493
428, 493,  26
429,  28, 494
430, 494, 495
431, 495, 496
432, 496, 497
433, 497, 498
434, 498, 499
435, 499, 500
436, 500, 501
437, 501, 502
438, 502, 503
439, 503, 504
440, 504, 505
441, 505, 506
442, 506, 507
443, 507, 508
444, 508,  27
445,  29, 509
446, 509, 510
447, 510, 511
448, 511, 512
449, 512, 513
450, 513, 514
451, 514, 515
452, 515, 516
453, 516, 517
454, 517, 518
455, 518, 519
456, 519, 520
457, 520, 521
458, 521, 522
459, 522, 523
460, 523,  28
461,  30, 524
462, 524, 525
463, 525, 526
464, 526, 527
465, 527, 528
466, 528, 529
467, 529, 530
468, 530, 531
469, 531, 532
470, 532, 533
471, 533, 534
472, 534, 535
473, 535, 536
474, 536, 537
475, 537, 538
476, 538,  29
477,  31, 539
478, 539, 540
479, 540, 541
480, 541, 542
481, 542, 543
482, 543, 544
483, 544, 545
484, 545, 546
485, 546, 547
486, 547, 548
487, 548, 549
488, 549, 550
489, 550, 551
490, 551, 552
491, 552, 553
492, 553,  30
493,  32, 554
494, 554, 555
495, 555, 556
496, 556, 557
497, 557, 558
498, 558, 559
499, 559, 560
500, 560, 561
501, 561, 562
502, 562, 563
503, 563, 564
504, 564, 565
505, 565, 566
506, 566, 567
507, 567, 568
508, 568,  31
509,  33, 569
510, 569, 570
511, 570, 571
512, 571, 572
513, 572, 573
514, 573, 574
515, 574, 575
516, 575, 576
517, 576, 577
518, 577, 578
519, 578, 579
520, 579, 580
521, 580, 581
522, 581, 582
523, 582, 583
524, 583,  32
525,  34, 584
526, 584, 585
527, 585, 586
528, 586, 587
529, 587, 588
530, 588, 589
531, 589, 590
532, 590, 591
533, 591, 592
534, 592, 593
535, 593, 594
536, 594, 595
537, 595, 596
538, 596, 597
539, 597, 598
540, 598,  33
541,  35, 599
542, 599, 600
543, 600, 601
544, 601, 602
545, 602, 603
546, 603, 604
547, 604, 605
548, 605,  34
549,  35, 606
550, 606, 607
551, 607, 608
552, 608, 609
553, 609, 610
554, 610, 611
555, 611, 612
556, 612, 613
557, 613, 614
558, 614, 615
559, 615, 616
560, 616, 617
561, 617, 618
562, 618, 619
563, 619, 620
564, 620, 621
565, 621,  36
566,  36, 622
567, 622, 623
568, 623, 624
569, 624, 625
570, 625, 626
571, 626, 627
572, 627, 628
573, 628, 629
574, 629, 630
575, 630, 631
576, 631, 632
577, 632, 633
578, 633, 634
579, 634, 635
580, 635, 636
581, 636, 637
582, 637, 638
583, 638, 639
584, 639, 640
585, 640, 641
586, 641, 642
587, 642, 643
588, 643, 644
589, 644, 645
590, 645, 646
591, 646, 647
592, 647, 648
593, 648, 649
594, 649, 650
595, 650, 651
596, 651, 652
597, 652, 653
598, 653, 654
599, 654, 655
600, 655, 656
601, 656, 657
602, 657, 658
603, 658, 659
604, 659, 660
605, 660, 661
606, 661, 662
607, 662, 663
608, 663, 664
609, 664, 665
610, 665, 666
611, 666, 667
612, 667,  37
613,  37, 668
614, 668, 669
615, 669, 670
616, 670, 671
617, 671, 672
618, 672, 673
619, 673, 674
620, 674, 675
621, 675, 676
622, 676, 677
623, 677, 678
624, 678, 679
625, 679, 680
626, 680, 681
627, 681, 682
628, 682, 683
629, 683,  38
630,  38, 684
631, 684, 685
632, 685, 686
633, 686, 687
634, 687, 688
635, 688, 689
636, 689, 690
637, 690,  39
638,  39, 691
639, 691, 692
640, 692, 693
641, 693, 694
642, 694, 695
643, 695, 696
644, 696, 697
645, 697, 698
646, 698, 699
647, 699, 700
648, 700, 701
649, 701, 702
650, 702, 703
651, 703, 704
652, 704, 705
653, 705,  40
654,  40, 706
655, 706, 707
656, 707, 708
657, 708, 709
658, 709, 710
659, 710, 711
660, 711, 712
661, 712, 713
662, 713, 714
663, 714, 715
664, 715, 716
665, 716, 717
666, 717, 718
667, 718, 719
668, 719, 720
669, 720,  41
670,  41, 721
671, 721, 722
672, 722, 723
673, 723, 724
674, 724, 725
675, 725, 726
676, 726, 727
677, 727, 728
678, 728, 729
679, 729, 730
680, 730, 731
681, 731, 732
682, 732, 733
683, 733, 734
684, 734, 735
685, 735,  42
686,  42, 736
687, 736, 737
688, 737, 738
689, 738, 739
690, 739, 740
691, 740, 741
692, 741, 742
693, 742, 743
694, 743, 744
695, 744, 745
696, 745, 746
697, 746, 747
698, 747, 748
699, 748, 749
700, 749, 750
701, 750,  43
702,  43, 751
703, 751, 752
704, 752, 753
705, 753, 754
706, 754, 755
707, 755, 756
708, 756, 757
709, 757, 758
710, 758, 759
711, 759, 760
712, 760, 761
713, 761, 762
714, 762, 763
715, 763, 764
716, 764, 765
717, 765,  44
718,  45, 766
719, 766, 767
720, 767, 768
721, 768, 769
722, 769, 770
723, 770, 771
724, 771, 772
725, 772, 773
726, 773, 774
727, 774, 775
728, 775, 776
729, 776, 777
730, 777, 778
731, 778, 779
732, 779, 780
733, 780, 781
734, 781,  44
735,  46, 782
736, 782, 783
737, 783, 784
738, 784, 785
739, 785, 786
740, 786, 787
741, 787, 788
742, 788, 789
743, 789, 790
744, 790, 791
745, 791, 792
746, 792, 793
747, 793, 794
748, 794, 795
749, 795, 796
750, 796, 797
751, 797, 798
752, 798, 799
753, 799, 800
754, 800, 801
755, 801, 802
756, 802, 803
757, 803, 804
758, 804, 805
759, 805, 806
760, 806, 807
761, 807, 808
762, 808, 809
763, 809, 810
764, 810, 811
765, 811, 812
766, 812, 813
767, 813, 814
768, 814, 815
769, 815, 816
770, 816, 817
771, 817, 818
772, 818, 819
773, 819, 820
774, 820, 821
775, 821, 822
776, 822, 823
777, 823, 824
778, 824, 825
779, 825, 826
780, 826, 827
781, 827,  45
782,  29, 828
783, 828, 829
784, 829, 830
785, 830, 831
786, 831, 832
787, 832, 833
788, 833, 834
789, 834, 835
790, 835, 836
791, 836, 837
792, 837, 838
793, 838, 839
794, 839, 840
795, 840, 841
796, 841, 842
797, 842, 843
798, 843,  46
799,  47, 844
800, 844, 845
801, 845, 846
802, 846, 847
803, 847, 848
804, 848, 849
805, 849, 850
806, 850, 851
807, 851, 852
808, 852, 853
809, 853, 854
810, 854, 855
811, 855, 856
812, 856, 857
813, 857, 858
814, 858,   7
815,  17, 859
816, 859, 860
817, 860, 861
818, 861, 862
819, 862, 863
820, 863, 864
821, 864, 865
822, 865, 866
823, 866, 867
824, 867, 868
825, 868, 869
826, 869, 870
827, 870, 871
828, 871, 872
829, 872, 873
830, 873, 874
831, 874,  48
832,  23, 875
833, 875, 876
834, 876, 877
835, 877, 878
836, 878, 879
837, 879, 880
838, 880, 881
839, 881, 882
840, 882, 883
841, 883, 884
842, 884, 885
843, 885, 886
844, 886, 887
845, 887, 888
846, 888, 889
847, 889, 890
848, 890,  49
849,  44, 891
850, 891, 892
851, 892, 893
852, 893, 894
853, 894, 895
854, 895, 896
855, 896, 897
856, 897, 898
857, 898, 899
858, 899, 900
859, 900, 901
860, 901, 902
861, 902, 903
862, 903, 904
863, 904, 905
864, 905,  50
865,  51, 906
866, 906, 907
867, 907, 908
868, 908, 909
869, 909, 910
870, 910, 911
871, 911, 912
872, 912, 913
873, 913, 914
874, 914, 915
875, 915, 916
876, 916, 917
877, 917, 918
878, 918, 919
879, 919, 920
880, 920,  47
881,  52, 921
882, 921, 922
883, 922, 923
884, 923, 924
885, 924, 925
886, 925, 926
887, 926, 927
888, 927, 928
889, 928, 929
890, 929, 930
891, 930, 931
892, 931, 932
893, 932, 933
894, 933, 934
895, 934, 935
896, 935,  51
897,  53, 936
898, 936, 937
899, 937, 938
900, 938, 939
901, 939, 940
902, 940, 941
903, 941, 942
904, 942, 943
905, 943, 944
906, 944, 945
907, 945, 946
908, 946, 947
909, 947, 948
910, 948, 949
911, 949, 950
912, 950,  52
913,  54, 951
914, 951, 952
915, 952, 953
916, 953, 954
917, 954, 955
918, 955, 956
919, 956, 957
920, 957, 958
921, 958, 959
922, 959, 960
923, 960, 961
924, 961, 962
925, 962, 963
926, 963, 964
927, 964, 965
928, 965,  53
929,  55, 966
930, 966, 967
931, 967, 968
932, 968, 969
933, 969, 970
934, 970, 971
935, 971, 972
936, 972, 973
937, 973, 974
938, 974, 975
939, 975, 976
940, 976, 977
941, 977, 978
942, 978, 979
943, 979, 980
944, 980,  54
945,  56, 981
946, 981, 982
947, 982, 983
948, 983, 984
949, 984, 985
950, 985, 986
951, 986, 987
952, 987, 988
953, 988, 989
954, 989, 990
955, 990, 991
956, 991, 992
957, 992, 993
958, 993, 994
959, 994, 995
960, 995,  55
961,   57,  996
962,  996,  997
963,  997,  998
964,  998,  999
965,  999, 1000
966, 1000, 1001
967, 1001, 1002
968, 1002, 1003
969, 1003, 1004
970, 1004, 1005
971, 1005, 1006
972, 1006, 1007
973, 1007, 1008
974, 1008, 1009
975, 1009, 1010
976, 1010,   56
977,   58, 1011
978, 1011, 1012
979, 1012, 1013
980, 1013, 1014
981, 1014, 1015
982, 1015, 1016
983, 1016, 1017
984, 1017, 1018
985, 1018, 1019
986, 1019, 1020
987, 1020, 1021
988, 1021, 1022
989, 1022, 1023
990, 1023, 1024
991, 1024, 1025
992, 1025,   57
 993,   59, 1026
 994, 1026, 1027
 995, 1027, 1028
 996, 1028, 1029
 997, 1029, 1030
 998, 1030, 1031
 999, 1031, 1032
1000, 1032, 1033
1001, 1033, 1034
1002, 1034, 1035
1003, 1035, 1036
1004, 1036, 1037
1005, 1037, 1038
1006, 1038, 1039
1007, 1039, 1040
1008, 1040,   58
1009,   60, 1041
1010, 1041, 1042
1011, 1042, 1043
1012, 1043, 1044
1013, 1044, 1045
1014, 1045, 1046
1015, 1046, 1047
1016, 1047,   59
1017,   61, 1048
1018, 1048, 1049
1019, 1049, 1050
1020, 1050, 1051
1021, 1051, 1052
1022, 1052, 1053
1023, 1053, 1054
1024, 1054,   60
1025,   62, 1055
1026, 1055, 1056
1027, 1056, 1057
1028, 1057, 1058
1029, 1058, 1059
1030, 1059, 1060
1031, 1060, 1061
1032, 1061, 1062
1033, 1062, 1063
1034, 1063, 1064
1035, 1064, 1065
1036, 1065, 1066
1037, 1066, 1067
1038, 1067, 1068
1039, 1068, 1069
1040, 1069,   61
1041,   63, 1070
1042, 1070, 1071
1043, 1071, 1072
1044, 1072, 1073
1045, 1073, 1074
1046, 1074, 1075
1047, 1075, 1076
1048, 1076, 1077
1049, 1077, 1078
1050, 1078, 1079
1051, 1079, 1080
1052, 1080, 1081
1053, 1081, 1082
1054, 1082, 1083
1055, 1083, 1084
1056, 1084,   62
1057,   64, 1085
1058, 1085, 1086
1059, 1086, 1087
1060, 1087, 1088
1061, 1088, 1089
1062, 1089, 1090
1063, 1090, 1091
1064, 1091, 1092
1065, 1092, 1093
1066, 1093, 1094
1067, 1094, 1095
1068, 1095, 1096
1069, 1096, 1097
1070, 1097, 1098
1071, 1098, 1099
1072, 1099,   63
1073,   50, 1100
1074, 1100, 1101
1075, 1101, 1102
1076, 1102, 1103
1077, 1103, 1104
1078, 1104, 1105
1079, 1105, 1106
1080, 1106, 1107
1081, 1107, 1108
1082, 1108, 1109
1083, 1109, 1110
1084, 1110, 1111
1085, 1111, 1112
1086, 1112, 1113
1087, 1113, 1114
1088, 1114,   64
1089,   48, 1115
1090, 1115, 1116
1091, 1116, 1117
1092, 1117, 1118
1093, 1118, 1119
1094, 1119, 1120
1095, 1120, 1121
1096, 1121, 1122
1097, 1122, 1123
1098, 1123, 1124
1099, 1124, 1125
1100, 1125, 1126
1101, 1126, 1127
1102, 1127, 1128
1103, 1128, 1129
1104, 1129, 1130
1105, 1130, 1131
1106, 1131, 1132
1107, 1132, 1133
1108, 1133, 1134
1109, 1134, 1135
1110, 1135, 1136
1111, 1136, 1137
1112, 1137, 1138
1113, 1138, 1139
1114, 1139, 1140
1115, 1140, 1141
1116, 1141, 1142
1117, 1142, 1143
1118, 1143, 1144
1119, 1144, 1145
1120, 1145, 1146
1121, 1146, 1147
1122, 1147, 1148
1123, 1148, 1149
1124, 1149, 1150
1125, 1150, 1151
1126, 1151, 1152
1127, 1152, 1153
1128, 1153, 1154
1129, 1154, 1155
1130, 1155, 1156
1131, 1156, 1157
1132, 1157, 1158
1133, 1158, 1159
1134, 1159, 1160
1135, 1160,   65
1136,   49, 1161
1137, 1161, 1162
1138, 1162, 1163
1139, 1163, 1164
1140, 1164, 1165
1141, 1165, 1166
1142, 1166, 1167
1143, 1167, 1168
1144, 1168, 1169
1145, 1169, 1170
1146, 1170, 1171
1147, 1171, 1172
1148, 1172, 1173
1149, 1173, 1174
1150, 1174, 1175
1151, 1175, 1176
1152, 1176, 1177
1153, 1177, 1178
1154, 1178, 1179
1155, 1179, 1180
1156, 1180, 1181
1157, 1181, 1182
1158, 1182, 1183
1159, 1183, 1184
1160, 1184, 1185
1161, 1185, 1186
1162, 1186, 1187
1163, 1187, 1188
1164, 1188, 1189
1165, 1189, 1190
1166, 1190, 1191
1167, 1191, 1192
1168, 1192, 1193
1169, 1193, 1194
1170, 1194, 1195
1171, 1195, 1196
1172, 1196, 1197
1173, 1197, 1198
1174, 1198, 1199
1175, 1199, 1200
1176, 1200, 1201
1177, 1201, 1202
1178, 1202, 1203
1179, 1203, 1204
1180, 1204, 1205
1181, 1205, 1206
1182, 1206,   66
1183,   65, 1207
1184, 1207, 1208
1185, 1208, 1209
1186, 1209, 1210
1187, 1210, 1211
1188, 1211, 1212
1189, 1212, 1213
1190, 1213, 1214
1191, 1214, 1215
1192, 1215, 1216
1193, 1216, 1217
1194, 1217, 1218
1195, 1218, 1219
1196, 1219, 1220
1197, 1220, 1221
1198, 1221, 1222
1199, 1222,   54
1200,   66, 1223
1201, 1223, 1224
1202, 1224, 1225
1203, 1225, 1226
1204, 1226, 1227
1205, 1227, 1228
1206, 1228, 1229
1207, 1229, 1230
1208, 1230, 1231
1209, 1231, 1232
1210, 1232, 1233
1211, 1233, 1234
1212, 1234, 1235
1213, 1235, 1236
1214, 1236, 1237
1215, 1237, 1238
1216, 1238,   60
1217,   67, 1239
1218, 1239, 1240
1219, 1240, 1241
1220, 1241, 1242
1221, 1242, 1243
1222, 1243, 1244
1223, 1244, 1245
1224, 1245, 1246
1225, 1246, 1247
1226, 1247, 1248
1227, 1248, 1249
1228, 1249, 1250
1229, 1250, 1251
1230, 1251, 1252
1231, 1252, 1253
1232, 1253, 1254
1233, 1254, 1255
1234, 1255, 1256
1235, 1256, 1257
1236, 1257, 1258
1237, 1258, 1259
1238, 1259, 1260
1239, 1260, 1261
1240, 1261, 1262
1241, 1262, 1263
1242, 1263, 1264
1243, 1264, 1265
1244, 1265, 1266
1245, 1266, 1267
1246, 1267, 1268
1247, 1268, 1269
1248, 1269, 1270
1249, 1270, 1271
1250, 1271, 1272
1251, 1272, 1273
1252, 1273, 1274
1253, 1274, 1275
1254, 1275, 1276
1255, 1276, 1277
1256, 1277, 1278
1257, 1278, 1279
1258, 1279, 1280
1259, 1280, 1281
1260, 1281,   68
1261,   68, 1282
1262, 1282, 1283
1263, 1283, 1284
1264, 1284, 1285
1265, 1285, 1286
1266, 1286, 1287
1267, 1287, 1288
1268, 1288, 1289
1269, 1289, 1290
1270, 1290, 1291
1271, 1291, 1292
1272, 1292, 1293
1273, 1293, 1294
1274, 1294, 1295
1275, 1295, 1296
1276, 1296, 1297
1277, 1297, 1298
1278, 1298, 1299
1279, 1299, 1300
1280, 1300, 1301
1281, 1301, 1302
1282, 1302, 1303
1283, 1303, 1304
1284, 1304, 1305
1285, 1305, 1306
1286, 1306, 1307
1287, 1307, 1308
1288, 1308, 1309
1289, 1309, 1310
1290, 1310, 1311
1291, 1311, 1312
1292, 1312, 1313
1293, 1313,   69
1294,   67, 1314
1295, 1314, 1315
1296, 1315,   70
1297,   71, 1316
1298, 1316, 1317
1299, 1317, 1318
1300, 1318, 1319
1301, 1319, 1320
1302, 1320, 1321
1303, 1321, 1322
1304, 1322, 1323
1305, 1323, 1324
1306, 1324, 1325
1307, 1325, 1326
1308, 1326, 1327
1309, 1327, 1328
1310, 1328, 1329
1311, 1329, 1330
1312, 1330, 1331
1313, 1331, 1332
1314, 1332, 1333
1315, 1333,   67
1316,   72, 1334
1317, 1334, 1335
1318, 1335, 1336
1319, 1336, 1337
1320, 1337, 1338
1321, 1338, 1339
1322, 1339, 1340
1323, 1340,   68
1324,   73, 1341
1325, 1341, 1342
1326, 1342, 1343
1327, 1343, 1344
1328, 1344, 1345
1329, 1345, 1346
1330, 1346, 1347
1331, 1347, 1348
1332, 1348, 1349
1333, 1349, 1350
1334, 1350, 1351
1335, 1351, 1352
1336, 1352, 1353
1337, 1353, 1354
1338, 1354, 1355
1339, 1355, 1356
1340, 1356, 1357
1341, 1357, 1358
1342, 1358, 1359
1343, 1359, 1360
1344, 1360, 1361
1345, 1361, 1362
1346, 1362, 1363
1347, 1363, 1364
1348, 1364, 1365
1349, 1365, 1366
1350, 1366, 1367
1351, 1367, 1368
1352, 1368, 1369
1353, 1369, 1370
1354, 1370, 1371
1355, 1371, 1372
1356, 1372, 1373
1357, 1373, 1374
1358, 1374, 1375
1359, 1375, 1376
1360, 1376, 1377
1361, 1377, 1378
1362, 1378, 1379
1363, 1379, 1380
1364, 1380, 1381
1365, 1381, 1382
1366, 1382, 1383
1367, 1383,   74
1368,   74, 1384
1369, 1384, 1385
1370, 1385, 1386
1371, 1386, 1387
1372, 1387, 1388
1373, 1388, 1389
1374, 1389, 1390
1375, 1390, 1391
1376, 1391, 1392
1377, 1392, 1393
1378, 1393, 1394
1379, 1394, 1395
1380, 1395, 1396
1381, 1396, 1397
1382, 1397, 1398
1383, 1398, 1399
1384, 1399, 1400
1385, 1400, 1401
1386, 1401, 1402
1387, 1402, 1403
1388, 1403, 1404
1389, 1404, 1405
1390, 1405, 1406
1391, 1406, 1407
1392, 1407, 1408
1393, 1408, 1409
1394, 1409, 1410
1395, 1410, 1411
1396, 1411, 1412
1397, 1412, 1413
1398, 1413, 1414
1399, 1414, 1415
1400, 1415,   75
1401,   73, 1416
1402, 1416, 1417
1403, 1417,   76
1404,   77, 1418
1405, 1418, 1419
1406, 1419, 1420
1407, 1420, 1421
1408, 1421, 1422
1409, 1422, 1423
1410, 1423, 1424
1411, 1424, 1425
1412, 1425, 1426
1413, 1426, 1427
1414, 1427, 1428
1415, 1428, 1429
1416, 1429, 1430
1417, 1430, 1431
1418, 1431, 1432
1419, 1432, 1433
1420, 1433, 1434
1421, 1434, 1435
1422, 1435,   73
1423,   78, 1436
1424, 1436, 1437
1425, 1437, 1438
1426, 1438, 1439
1427, 1439, 1440
1428, 1440, 1441
1429, 1441, 1442
1430, 1442,   74
1431,   79, 1443
1432, 1443, 1444
1433, 1444, 1445
1434, 1445, 1446
1435, 1446, 1447
1436, 1447, 1448
1437, 1448, 1449
1438, 1449, 1450
1439, 1450, 1451
1440, 1451, 1452
1441, 1452, 1453
1442, 1453, 1454
1443, 1454, 1455
1444, 1455, 1456
1445, 1456, 1457
1446, 1457, 1458
1447, 1458, 1459
1448, 1459, 1460
1449, 1460, 1461
1450, 1461, 1462
1451, 1462, 1463
1452, 1463, 1464
1453, 1464, 1465
1454, 1465, 1466
1455, 1466, 1467
1456, 1467, 1468
1457, 1468, 1469
1458, 1469, 1470
1459, 1470, 1471
1460, 1471, 1472
1461, 1472, 1473
1462, 1473, 1474
1463, 1474, 1475
1464, 1475, 1476
1465, 1476, 1477
1466, 1477, 1478
1467, 1478, 1479
1468, 1479, 1480
1469, 1480, 1481
1470, 1481, 1482
1471, 1482, 1483
1472, 1483, 1484
1473, 1484, 1485
1474, 1485,   80
1475,   80, 1486
1476, 1486, 1487
1477, 1487, 1488
1478, 1488, 1489
1479, 1489, 1490
1480, 1490, 1491
1481, 1491, 1492
1482, 1492, 1493
1483, 1493, 1494
1484, 1494, 1495
1485, 1495, 1496
1486, 1496, 1497
1487, 1497, 1498
1488, 1498, 1499
1489, 1499, 1500
1490, 1500, 1501
1491, 1501, 1502
1492, 1502, 1503
1493, 1503, 1504
1494, 1504, 1505
1495, 1505, 1506
1496, 1506, 1507
1497, 1507, 1508
1498, 1508, 1509
1499, 1509, 1510
1500, 1510, 1511
1501, 1511, 1512
1502, 1512, 1513
1503, 1513, 1514
1504, 1514, 1515
1505, 1515, 1516
1506, 1516, 1517
1507, 1517,   81
1508,   79, 1518
1509, 1518, 1519
1510, 1519,   82
1511,   83, 1520
1512, 1520, 1521
1513, 1521, 1522
1514, 1522, 1523
1515, 1523, 1524
1516, 1524, 1525
1517, 1525, 1526
1518, 1526, 1527
1519, 1527, 1528
1520, 1528, 1529
1521, 1529, 1530
1522, 1530, 1531
1523, 1531, 1532
1524, 1532, 1533
1525, 1533, 1534
1526, 1534, 1535
1527, 1535, 1536
1528, 1536, 1537
1529, 1537,   79
1530,   84, 1538
1531, 1538, 1539
1532, 1539, 1540
1533, 1540, 1541
1534, 1541, 1542
1535, 1542, 1543
1536, 1543, 1544
1537, 1544,   80
1538,   85, 1545
1539, 1545, 1546
1540, 1546, 1547
1541, 1547, 1548
1542, 1548, 1549
1543, 1549, 1550
1544, 1550, 1551
1545, 1551, 1552
1546, 1552, 1553
1547, 1553, 1554
1548, 1554, 1555
1549, 1555, 1556
1550, 1556, 1557
1551, 1557, 1558
1552, 1558, 1559
1553, 1559, 1560
1554, 1560, 1561
1555, 1561, 1562
1556, 1562, 1563
1557, 1563, 1564
1558, 1564, 1565
1559, 1565, 1566
1560, 1566, 1567
1561, 1567, 1568
1562, 1568, 1569
1563, 1569, 1570
1564, 1570, 1571
1565, 1571, 1572
1566, 1572, 1573
1567, 1573, 1574
1568, 1574, 1575
1569, 1575, 1576
1570, 1576, 1577
1571, 1577, 1578
1572, 1578, 1579
1573, 1579, 1580
1574, 1580, 1581
1575, 1581, 1582
1576, 1582, 1583
1577, 1583, 1584
1578, 1584, 1585
1579, 1585, 1586
1580, 1586, 1587
1581, 1587,   86
1582,   86, 1588
1583, 1588, 1589
1584, 1589, 1590
1585, 1590, 1591
1586, 1591, 1592
1587, 1592, 1593
1588, 1593, 1594
1589, 1594, 1595
1590, 1595, 1596
1591, 1596, 1597
1592, 1597, 1598
1593, 1598, 1599
1594, 1599, 1600
1595, 1600, 1601
1596, 1601, 1602
1597, 1602, 1603
1598, 1603, 1604
1599, 1604, 1605
1600, 1605, 1606
1601, 1606, 1607
1602, 1607, 1608
1603, 1608, 1609
1604, 1609, 1610
1605, 1610, 1611
1606, 1611, 1612
1607, 1612, 1613
1608, 1613, 1614
1609, 1614, 1615
1610, 1615, 1616
1611, 1616, 1617
1612, 1617, 1618
1613, 1618, 1619
1614, 1619,   87
1615,   85, 1620
1616, 1620, 1621
1617, 1621,   88
1618,   89, 1622
1619, 1622, 1623
1620, 1623, 1624
1621, 1624, 1625
1622, 1625, 1626
1623, 1626, 1627
1624, 1627, 1628
1625, 1628, 1629
1626, 1629, 1630
1627, 1630, 1631
1628, 1631, 1632
1629, 1632, 1633
1630, 1633, 1634
1631, 1634, 1635
1632, 1635, 1636
1633, 1636, 1637
1634, 1637, 1638
1635, 1638, 1639
1636, 1639,   85
1637,   90, 1640
1638, 1640, 1641
1639, 1641, 1642
1640, 1642, 1643
1641, 1643, 1644
1642, 1644, 1645
1643, 1645, 1646
1644, 1646,   86
*Nset, nset=P2
    8,    9,   10,   11,   17,   23,   29,   35,   36,   37,   38,   44,   45,   46,   48,   49
   54,   60,   65,   66,  200,  201,  202,  203,  204,  205,  206,  207,  208,  209,  210,  211
  212,  213,  214,  215,  216,  217,  218,  219,  220,  221,  222,  223,  224,  225,  226,  227
  228,  229,  230,  231,  232,  233,  234,  235,  236,  237,  238,  239,  240,  241,  242,  243
  244,  245,  246,  247,  248,  249,  250,  251,  252,  253,  254,  255,  256,  257,  258,  259
  260,  261,  262,  263,  264,  265,  266,  267,  268,  269,  270,  271,  272,  273,  274,  275
  276,  277,  606,  607,  608,  609,  610,  611,  612,  613,  614,  615,  616,  617,  618,  619
  620,  621,  622,  623,  624,  625,  626,  627,  628,  629,  630,  631,  632,  633,  634,  635
  636,  637,  638,  639,  640,  641,  642,  643,  644,  645,  646,  647,  648,  649,  650,  651
  652,  653,  654,  655,  656,  657,  658,  659,  660,  661,  662,  663,  664,  665,  666,  667
  668,  669,  670,  671,  672,  673,  674,  675,  676,  677,  678,  679,  680,  681,  682,  683
  766,  767,  768,  769,  770,  771,  772,  773,  774,  775,  776,  777,  778,  779,  780,  781
  782,  783,  784,  785,  786,  787,  788,  789,  790,  791,  792,  793,  794,  795,  796,  797
  798,  799,  800,  801,  802,  803,  804,  805,  806,  807,  808,  809,  810,  811,  812,  813
  814,  815,  816,  817,  818,  819,  820,  821,  822,  823,  824,  825,  826,  827,  828,  829
  830,  831,  832,  833,  834,  835,  836,  837,  838,  839,  840,  841,  842,  843,  859,  860
  861,  862,  863,  864,  865,  866,  867,  868,  869,  870,  871,  872,  873,  874,  875,  876
  877,  878,  879,  880,  881,  882,  883,  884,  885,  886,  887,  888,  889,  890, 1115, 1116
 1117, 1118, 1119, 1120, 1121, 1122, 1123, 1124, 1125, 1126, 1127, 1128, 1129, 1130, 1131, 1132
 1133, 1134, 1135, 1136, 1137, 1138, 1139, 1140, 1141, 1142, 1143, 1144, 1145, 1146, 1147, 1148
 1149, 1150, 1151, 1152, 1153, 1154, 1155, 1156, 1157, 1158, 1159, 1160, 1161, 1162, 1163, 1164
 1165, 1166, 1167, 1168, 1169, 1170, 1171, 1172, 1173, 1174, 1175, 1176, 1177, 1178, 1179, 1180
 1181, 1182, 1183, 1184, 1185, 1186, 1187, 1188, 1189, 1190, 1191, 1192, 1193, 1194, 1195, 1196
 1197, 1198, 1199, 1200, 1201, 1202, 1203, 1204, 1205, 1206, 1207, 1208, 1209, 1210, 1211, 1212
 1213, 1214, 1215, 1216, 1217, 1218, 1219, 1220, 1221, 1222, 1223, 1224, 1225, 1226, 1227, 1228
 1229, 1230, 1231, 1232, 1233, 1234, 1235, 1236, 1237, 1238
*Elset, elset=P2
  116,  117,  118,  119,  120,  121,  122,  123,  124,  125,  126,  127,  128,  129,  130,  131
  132,  133,  134,  135,  136,  137,  138,  139,  140,  141,  142,  143,  144,  145,  146,  147
  148,  149,  150,  151,  152,  153,  154,  155,  156,  157,  158,  159,  160,  161,  162,  163
  164,  165,  166,  167,  168,  169,  170,  171,  172,  173,  174,  175,  176,  177,  178,  179
  180,  181,  182,  183,  184,  185,  186,  187,  188,  189,  190,  191,  192,  193,  194,  195
  196,  549,  550,  551,  552,  553,  554,  555,  556,  557,  558,  559,  560,  561,  562,  563
  564,  565,  566,  567,  568,  569,  570,  571,  572,  573,  574,  575,  576,  577,  578,  579
  580,  581,  582,  583,  584,  585,  586,  587,  588,  589,  590,  591,  592,  593,  594,  595
  596,  597,  598,  599,  600,  601,  602,  603,  604,  605,  606,  607,  608,  609,  610,  611
  612,  613,  614,  615,  616,  617,  618,  619,  620,  621,  622,  623,  624,  625,  626,  627
  628,  629,  718,  719,  720,  721,  722,  723,  724,  725,  726,  727,  728,  729,  730,  731
  732,  733,  734,  735,  736,  737,  738,  739,  740,  741,  742,  743,  744,  745,  746,  747
  748,  749,  750,  751,  752,  753,  754,  755,  756,  757,  758,  759,  760,  761,  762,  763
  764,  765,  766,  767,  768,  769,  770,  771,  772,  773,  774,  775,  776,  777,  778,  779
  780,  781,  782,  783,  784,  785,  786,  787,  788,  789,  790,  791,  792,  793,  794,  795
  796,  797,  798,  815,  816,  817,  818,  819,  820,  821,  822,  823,  824,  825,  826,  827
  828,  829,  830,  831,  832,  833,  834,  835,  836,  837,  838,  839,  840,  841,  842,  843
  844,  845,  846,  847,  848, 1089, 1090, 1091, 1092, 1093, 1094, 1095, 1096, 1097, 1098, 1099
 1100, 1101, 1102, 1103, 1104, 1105, 1106, 1107, 1108, 1109, 1110, 1111, 1112, 1113, 1114, 1115
 1116, 1117, 1118, 1119, 1120, 1121, 1122, 1123, 1124, 1125, 1126, 1127, 1128, 1129, 1130, 1131
 1132, 1133, 1134, 1135, 1136, 1137, 1138, 1139, 1140, 1141, 1142, 1143, 1144, 1145, 1146, 1147
 1148, 1149, 1150, 1151, 1152, 1153, 1154, 1155, 1156, 1157, 1158, 1159, 1160, 1161, 1162, 1163
 1164, 1165, 1166, 1167, 1168, 1169, 1170, 1171, 1172, 1173, 1174, 1175, 1176, 1177, 1178, 1179
 1180, 1181, 1182, 1183, 1184, 1185, 1186, 1187, 1188, 1189, 1190, 1191, 1192, 1193, 1194, 1195
 1196, 1197, 1198, 1199, 1200, 1201, 1202, 1203, 1204, 1205, 1206, 1207, 1208, 1209, 1210, 1211
 1212, 1213, 1214, 1215, 1216
*Nset, nset=P3
    1,    4,    5,   67,   70,   71,   73,   76,   77,   79,   82,   83,   85,   88,   89,  166
  167,  168,  169,  170,  171,  172,  173,  174,  175,  176,  177,  178,  179,  180,  181,  182
  183,  184,  185, 1314, 1315, 1316, 1317, 1318, 1319, 1320, 1321, 1322, 1323, 1324, 1325, 1326
 1327, 1328, 1329, 1330, 1331, 1332, 1333, 1416, 1417, 1418, 1419, 1420, 1421, 1422, 1423, 1424
 1425, 1426, 1427, 1428, 1429, 1430, 1431, 1432, 1433, 1434, 1435, 1518, 1519, 1520, 1521, 1522
 1523, 1524, 1525, 1526, 1527, 1528, 1529, 1530, 1531, 1532, 1533, 1534, 1535, 1536, 1537, 1620
 1621, 1622, 1623, 1624, 1625, 1626, 1627, 1628, 1629, 1630, 1631, 1632, 1633, 1634, 1635, 1636
 1637, 1638, 1639
*Elset, elset=P3
   78,   79,   80,   81,   82,   83,   84,   85,   86,   87,   88,   89,   90,   91,   92,   93
   94,   95,   96,   97,   98,   99, 1294, 1295, 1296, 1297, 1298, 1299, 1300, 1301, 1302, 1303
 1304, 1305, 1306, 1307, 1308, 1309, 1310, 1311, 1312, 1313, 1314, 1315, 1401, 1402, 1403, 1404
 1405, 1406, 1407, 1408, 1409, 1410, 1411, 1412, 1413, 1414, 1415, 1416, 1417, 1418, 1419, 1420
 1421, 1422, 1508, 1509, 1510, 1511, 1512, 1513, 1514, 1515, 1516, 1517, 1518, 1519, 1520, 1521
 1522, 1523, 1524, 1525, 1526, 1527, 1528, 1529, 1615, 1616, 1617, 1618, 1619, 1620, 1621, 1622
 1623, 1624, 1625, 1626, 1627, 1628, 1629, 1630, 1631, 1632, 1633, 1634, 1635, 1636
*Nset, nset=P4
    2,    3,    6,   68,   69,   72,   74,   75,   78,   80,   81,   84,   86,   87,   90,  134
  135,  136,  137,  138,  139,  140,  141,  142,  143,  144,  145,  146,  147,  148,  149,  150
  151,  152,  153,  154,  155,  156,  157,  158,  159,  160,  161,  162,  163,  164,  165,  186
  187,  188,  189,  190,  191,  192, 1282, 1283, 1284, 1285, 1286, 1287, 1288, 1289, 1290, 1291
 1292, 1293, 1294, 1295, 1296, 1297, 1298, 1299, 1300, 1301, 1302, 1303, 1304, 1305, 1306, 1307
 1308, 1309, 1310, 1311, 1312, 1313, 1334, 1335, 1336, 1337, 1338, 1339, 1340, 1384, 1385, 1386
 1387, 1388, 1389, 1390, 1391, 1392, 1393, 1394, 1395, 1396, 1397, 1398, 1399, 1400, 1401, 1402
 1403, 1404, 1405, 1406, 1407, 1408, 1409, 1410, 1411, 1412, 1413, 1414, 1415, 1436, 1437, 1438
 1439, 1440, 1441, 1442, 1486, 1487, 1488, 1489, 1490, 1491, 1492, 1493, 1494, 1495, 1496, 1497
 1498, 1499, 1500, 1501, 1502, 1503, 1504, 1505, 1506, 1507, 1508, 1509, 1510, 1511, 1512, 1513
 1514, 1515, 1516, 1517, 1538, 1539, 1540, 1541, 1542, 1543, 1544, 1588, 1589, 1590, 1591, 1592
 1593, 1594, 1595, 1596, 1597, 1598, 1599, 1600, 1601, 1602, 1603, 1604, 1605, 1606, 1607, 1608
 1609, 1610, 1611, 1612, 1613, 1614, 1615, 1616, 1617, 1618, 1619, 1640, 1641, 1642, 1643, 1644
 1645, 1646
*Elset, elset=P4
   45,   46,   47,   48,   49,   50,   51,   52,   53,   54,   55,   56,   57,   58,   59,   60
   61,   62,   63,   64,   65,   66,   67,   68,   69,   70,   71,   72,   73,   74,   75,   76
   77,  100,  101,  102,  103,  104,  105,  106,  107, 1261, 1262, 1263, 1264, 1265, 1266, 1267
 1268, 1269, 1270, 1271, 1272, 1273, 1274, 1275, 1276, 1277, 1278, 1279, 1280, 1281, 1282, 1283
 1284, 1285, 1286, 1287, 1288, 1289, 1290, 1291, 1292, 1293, 1316, 1317, 1318, 1319, 1320, 1321
 1322, 1323, 1368, 1369, 1370, 1371, 1372, 1373, 1374, 1375, 1376, 1377, 1378, 1379, 1380, 1381
 1382, 1383, 1384, 1385, 1386, 1387, 1388, 1389, 1390, 1391, 1392, 1393, 1394, 1395, 1396, 1397
 1398, 1399, 1400, 1423, 1424, 1425, 1426, 1427, 1428, 1429, 1430, 1475, 1476, 1477, 1478, 1479
 1480, 1481, 1482, 1483, 1484, 1485, 1486, 1487, 1488, 1489, 1490, 1491, 1492, 1493, 1494, 1495
 1496, 1497, 1498, 1499, 1500, 1501, 1502, 1503, 1504, 1505, 1506, 1507, 1530, 1531, 1532, 1533
 1534, 1535, 1536, 1537, 1582, 1583, 1584, 1585, 1586, 1587, 1588, 1589, 1590, 1591, 1592, 1593
 1594, 1595, 1596, 1597, 1598, 1599, 1600, 1601, 1602, 1603, 1604, 1605, 1606, 1607, 1608, 1609
 1610, 1611, 1612, 1613, 1614, 1637, 1638, 1639, 1640, 1641, 1642, 1643, 1644
*Nset, nset=P5
    7,    8,   11,   12,   13,   14,   15,   16,   17,   18,   19,   20,   21,   22,   23,   24
   25,   26,   27,   28,   29,   30,   31,   32,   33,   34,   35,   38,   39,   40,   41,   42
   43,   44,   47,   50,   51,   52,   53,   54,   55,   56,   57,   58,   59,   60,   61,   62
   63,   64,  193,  194,  195,  196,  197,  198,  199,  278,  279,  280,  281,  282,  283,  284
  285,  286,  287,  288,  289,  290,  291,  292,  293,  294,  295,  296,  297,  298,  299,  300
  301,  302,  303,  304,  305,  306,  307,  308,  309,  310,  311,  312,  313,  314,  315,  316
  317,  318,  319,  320,  321,  322,  323,  324,  325,  326,  327,  328,  329,  330,  331,  332
  333,  334,  335,  336,  337,  338,  339,  340,  341,  342,  343,  344,  345,  346,  347,  348
  349,  350,  351,  352,  353,  354,  355,  356,  357,  358,  359,  360,  361,  362,  363,  364
  365,  366,  367,  368,  369,  370,  371,  372,  373,  374,  375,  376,  377,  378,  379,  380
  381,  382,  383,  384,  385,  386,  387,  388,  389,  390,  391,  392,  393,  394,  395,  396
  397,  398,  399,  400,  401,  402,  403,  404,  405,  406,  407,  408,  409,  410,  411,  412
  413,  414,  415,  416,  417,  418,  419,  420,  421,  422,  423,  424,  425,  426,  427,  428
  429,  430,  431,  432,  433,  434,  435,  436,  437,  438,  439,  440,  441,  442,  443,  444
  445,  446,  447,  448,  449,  450,  451,  452,  453,  454,  455,  456,  457,  458,  459,  460
  461,  462,  463,  464,  465,  466,  467,  468,  469,  470,  471,  472,  473,  474,  475,  476
  477,  478,  479,  480,  481,  482,  483,  484,  485,  486,  487,  488,  489,  490,  491,  492
  493,  494,  495,  496,  497,  498,  499,  500,  501,  502,  503,  504,  505,  506,  507,  508
  509,  510,  511,  512,  513,  514,  515,  516,  517,  518,  519,  520,  521,  522,  523,  524
  525,  526,  527,  528,  529,  530,  531,  532,  533,  534,  535,  536,  537,  538,  539,  540
  541,  542,  543,  544,  545,  546,  547,  548,  549,  550,  551,  552,  553,  554,  555,  556
  557,  558,  559,  560,  561,  562,  563,  564,  565,  566,  567,  568,  569,  570,  571,  572
  573,  574,  575,  576,  577,  578,  579,  580,  581,  582,  583,  584,  585,  586,  587,  588
  589,  590,  591,  592,  593,  594,  595,  596,  597,  598,  599,  600,  601,  602,  603,  604
  605,  684,  685,  686,  687,  688,  689,  690,  691,  692,  693,  694,  695,  696,  697,  698
  699,  700,  701,  702,  703,  704,  705,  706,  707,  708,  709,  710,  711,  712,  713,  714
  715,  716,  717,  718,  719,  720,  721,  722,  723,  724,  725,  726,  727,  728,  729,  730
  731,  732,  733,  734,  735,  736,  737,  738,  739,  740,  741,  742,  743,  744,  745,  746
  747,  748,  749,  750,  751,  752,  753,  754,  755,  756,  757,  758,  759,  760,  761,  762
  763,  764,  765,  844,  845,  846,  847,  848,  849,  850,  851,  852,  853,  854,  855,  856
  857,  858,  891,  892,  893,  894,  895,  896,  897,  898,  899,  900,  901,  902,  903,  904
  905,  906,  907,  908,  909,  910,  911,  912,  913,  914,  915,  916,  917,  918,  919,  920
  921,  922,  923,  924,  925,  926,  927,  928,  929,  930,  931,  932,  933,  934,  935,  936
  937,  938,  939,  940,  941,  942,  943,  944,  945,  946,  947,  948,  949,  950,  951,  952
  953,  954,  955,  956,  957,  958,  959,  960,  961,  962,  963,  964,  965,  966,  967,  968
  969,  970,  971,  972,  973,  974,  975,  976,  977,  978,  979,  980,  981,  982,  983,  984
  985,  986,  987,  988,  989,  990,  991,  992,  993,  994,  995,  996,  997,  998,  999, 1000
 1001, 1002, 1003, 1004, 1005, 1006, 1007, 1008, 1009, 1010, 1011, 1012, 1013, 1014, 1015, 1016
 1017, 1018, 1019, 1020, 1021, 1022, 1023, 1024, 1025, 1026, 1027, 1028, 1029, 1030, 1031, 1032
 1033, 1034, 1035, 1036, 1037, 1038, 1039, 1040, 1041, 1042, 1043, 1044, 1045, 1046, 1047, 1048
 1049, 1050, 1051, 1052, 1053, 1054, 1055, 1056, 1057, 1058, 1059, 1060, 1061, 1062, 1063, 1064
 1065, 1066, 1067, 1068, 1069, 1070, 1071, 1072, 1073, 1074, 1075, 1076, 1077, 1078, 1079, 1080
 1081, 1082, 1083, 1084, 1085, 1086, 1087, 1088, 1089, 1090, 1091, 1092, 1093, 1094, 1095, 1096
 1097, 1098, 1099, 1100, 1101, 1102, 1103, 1104, 1105, 1106, 1107, 1108, 1109, 1110, 1111, 1112
 1113, 1114
*Elset, elset=P5
  108,  109,  110,  111,  112,  113,  114,  115,  197,  198,  199,  200,  201,  202,  203,  204
  205,  206,  207,  208,  209,  210,  211,  212,  213,  214,  215,  216,  217,  218,  219,  220
  221,  222,  223,  224,  225,  226,  227,  228,  229,  230,  231,  232,  233,  234,  235,  236
  237,  238,  239,  240,  241,  242,  243,  244,  245,  246,  247,  248,  249,  250,  251,  252
  253,  254,  255,  256,  257,  258,  259,  260,  261,  262,  263,  264,  265,  266,  267,  268
  269,  270,  271,  272,  273,  274,  275,  276,  277,  278,  279,  280,  281,  282,  283,  284
  285,  286,  287,  288,  289,  290,  291,  292,  293,  294,  295,  296,  297,  298,  299,  300
  301,  302,  303,  304,  305,  306,  307,  308,  309,  310,  311,  312,  313,  314,  315,  316
  317,  318,  319,  320,  321,  322,  323,  324,  325,  326,  327,  328,  329,  330,  331,  332
  333,  334,  335,  336,  337,  338,  339,  340,  341,  342,  343,  344,  345,  346,  347,  348
  349,  350,  351,  352,  353,  354,  355,  356,  357,  358,  359,  360,  361,  362,  363,  364
  365,  366,  367,  368,  369,  370,  371,  372,  373,  374,  375,  376,  377,  378,  379,  380
  381,  382,  383,  384,  385,  386,  387,  388,  389,  390,  391,  392,  393,  394,  395,  396
  397,  398,  399,  400,  401,  402,  403,  404,  405,  406,  407,  408,  409,  410,  411,  412
  413,  414,  415,  416,  417,  418,  419,  420,  421,  422,  423,  424,  425,  426,  427,  428
  429,  430,  431,  432,  433,  434,  435,  436,  437,  438,  439,  440,  441,  442,  443,  444
  445,  446,  447,  448,  449,  450,  451,  452,  453,  454,  455,  456,  457,  458,  459,  460
  461,  462,  463,  464,  465,  466,  467,  468,  469,  470,  471,  472,  473,  474,  475,  476
  477,  478,  479,  480,  481,  482,  483,  484,  485,  486,  487,  488,  489,  490,  491,  492
  493,  494,  495,  496,  497,  498,  499,  500,  501,  502,  503,  504,  505,  506,  507,  508
  509,  510,  511,  512,  513,  514,  515,  516,  517,  518,  519,  520,  521,  522,  523,  524
  525,  526,  527,  528,  529,  530,  531,  532,  533,  534,  535,  536,  537,  538,  539,  540
  541,  542,  543,  544,  545,  546,  547,  548,  630,  631,  632,  633,  634,  635,  636,  637
  638,  639,  640,  641,  642,  643,  644,  645,  646,  647,  648,  649,  650,  651,  652,  653
  654,  655,  656,  657,  658,  659,  660,  661,  662,  663,  664,  665,  666,  667,  668,  669
  670,  671,  672,  673,  674,  675,  676,  677,  678,  679,  680,  681,  682,  683,  684,  685
  686,  687,  688,  689,  690,  691,  692,  693,  694,  695,  696,  697,  698,  699,  700,  701
  702,  703,  704,  705,  706,  707,  708,  709,  710,  711,  712,  713,  714,  715,  716,  717
  799,  800,  801,  802,  803,  804,  805,  806,  807,  808,  809,  810,  811,  812,  813,  814
  849,  850,  851,  852,  853,  854,  855,  856,  857,  858,  859,  860,  861,  862,  863,  864
  865,  866,  867,  868,  869,  870,  871,  872,  873,  874,  875,  876,  877,  878,  879,  880
  881,  882,  883,  884,  885,  886,  887,  888,  889,  890,  891,  892,  893,  894,  895,  896
  897,  898,  899,  900,  901,  902,  903,  904,  905,  906,  907,  908,  909,  910,  911,  912
  913,  914,  915,  916,  917,  918,  919,  920,  921,  922,  923,  924,  925,  926,  927,  928
  929,  930,  931,  932,  933,  934,  935,  936,  937,  938,  939,  940,  941,  942,  943,  944
  945,  946,  947,  948,  949,  950,  951,  952,  953,  954,  955,  956,  957,  958,  959,  960
  961,  962,  963,  964,  965,  966,  967,  968,  969,  970,  971,  972,  973,  974,  975,  976
  977,  978,  979,  980,  981,  982,  983,  984,  985,  986,  987,  988,  989,  990,  991,  992
  993,  994,  995,  996,  997,  998,  999, 1000, 1001, 1002, 1003, 1004, 1005, 1006, 1007, 1008
 1009, 1010, 1011, 1012, 1013, 1014, 1015, 1016, 1017, 1018, 1019, 1020, 1021, 1022, 1023, 1024
 1025, 1026, 1027, 1028, 1029, 1030, 1031, 1032, 1033, 1034, 1035, 1036, 1037, 1038, 1039, 1040
 1041, 1042, 1043, 1044, 1045, 1046, 1047, 1048, 1049, 1050, 1051, 1052, 1053, 1054, 1055, 1056
 1057, 1058, 1059, 1060, 1061, 1062, 1063, 1064, 1065, 1066, 1067, 1068, 1069, 1070, 1071, 1072
 1073, 1074, 1075, 1076, 1077, 1078, 1079, 1080, 1081, 1082, 1083, 1084, 1085, 1086, 1087, 1088
*Nset, nset=P6
    1,    2,   67,   68,   73,   74,   79,   80,   85,   86,   91,   92,   93,   94,   95,   96
   97,   98,   99,  100,  101,  102,  103,  104,  105,  106,  107,  108,  109,  110,  111,  112
  113,  114,  115,  116,  117,  118,  119,  120,  121,  122,  123,  124,  125,  126,  127,  128
  129,  130,  131,  132,  133, 1239, 1240, 1241, 1242, 1243, 1244, 1245, 1246, 1247, 1248, 1249
 1250, 1251, 1252, 1253, 1254, 1255, 1256, 1257, 1258, 1259, 1260, 1261, 1262, 1263, 1264, 1265
 1266, 1267, 1268, 1269, 1270, 1271, 1272, 1273, 1274, 1275, 1276, 1277, 1278, 1279, 1280, 1281
 1341, 1342, 1343, 1344, 1345, 1346, 1347, 1348, 1349, 1350, 1351, 1352, 1353, 1354, 1355, 1356
 1357, 1358, 1359, 1360, 1361, 1362, 1363, 1364, 1365, 1366, 1367, 1368, 1369, 1370, 1371, 1372
 1373, 1374, 1375, 1376, 1377, 1378, 1379, 1380, 1381, 1382, 1383, 1443, 1444, 1445, 1446, 1447
 1448, 1449, 1450, 1451, 1452, 1453, 1454, 1455, 1456, 1457, 1458, 1459, 1460, 1461, 1462, 1463
 1464, 1465, 1466, 1467, 1468, 1469, 1470, 1471, 1472, 1473, 1474, 1475, 1476, 1477, 1478, 1479
 1480, 1481, 1482, 1483, 1484, 1485, 1545, 1546, 1547, 1548, 1549, 1550, 1551, 1552, 1553, 1554
 1555, 1556, 1557, 1558, 1559, 1560, 1561, 1562, 1563, 1564, 1565, 1566, 1567, 1568, 1569, 1570
 1571, 1572, 1573, 1574, 1575, 1576, 1577, 1578, 1579, 1580, 1581, 1582, 1583, 1584, 1585, 1586
 1587,
*Elset, elset=P6
    1,    2,    3,    4,    5,    6,    7,    8,    9,   10,   11,   12,   13,   14,   15,   16
   17,   18,   19,   20,   21,   22,   23,   24,   25,   26,   27,   28,   29,   30,   31,   32
   33,   34,   35,   36,   37,   38,   39,   40,   41,   42,   43,   44, 1217, 1218, 1219, 1220
 1221, 1222, 1223, 1224, 1225, 1226, 1227, 1228, 1229, 1230, 1231, 1232, 1233, 1234, 1235, 1236
 1237, 1238, 1239, 1240, 1241, 1242, 1243, 1244, 1245, 1246, 1247, 1248, 1249, 1250, 1251, 1252
 1253, 1254, 1255, 1256, 1257, 1258, 1259, 1260, 1324, 1325, 1326, 1327, 1328, 1329, 1330, 1331
 1332, 1333, 1334, 1335, 1336, 1337, 1338, 1339, 1340, 1341, 1342, 1343, 1344, 1345, 1346, 1347
 1348, 1349, 1350, 1351, 1352, 1353, 1354, 1355, 1356, 1357, 1358, 1359, 1360, 1361, 1362, 1363
 1364, 1365, 1366, 1367, 1431, 1432, 1433, 1434, 1435, 1436, 1437, 1438, 1439, 1440, 1441, 1442
 1443, 1444, 1445, 1446, 1447, 1448, 1449, 1450, 1451, 1452, 1453, 1454, 1455, 1456, 1457, 1458
 1459, 1460, 1461, 1462, 1463, 1464, 1465, 1466, 1467, 1468, 1469, 1470, 1471, 1472, 1473, 1474
 1538, 1539, 1540, 1541, 1542, 1543, 1544, 1545, 1546, 1547, 1548, 1549, 1550, 1551, 1552, 1553
 1554, 1555, 1556, 1557, 1558, 1559, 1560, 1561, 1562, 1563, 1564, 1565, 1566, 1567, 1568, 1569
 1570, 1571, 1572, 1573, 1574, 1575, 1576, 1577, 1578, 1579, 1580, 1581
** Section: P6  Profile: C50
*Beam Section, elset=P6, material=S235JR, poisson = 0.3, temperature=GRADIENTS, section=ARBITRARY
3, 16.875, 22.5, -5.625, 22.5, 5.
-5.625, -22.5, 5.
16.875, -22.5, 5.
1.,0.,0.
** Section: P4  Profile: C125
*Beam Section, elset=P4, material=S235JR, poisson = 0.3, temperature=GRADIENTS, section=ARBITRARY
5, 36.9745, 37.5, 36.9745, 60.5, 4.
-21.5255, 60.5, 4.
-21.5255, -60.5, 4.
36.9745, -60.5, 4.
36.9745, -37.5, 4.
-1.,0.,0.
** Section: P3  Profile: C125
*Beam Section, elset=P3, material=S235JR, poisson = 0.3, temperature=GRADIENTS, section=ARBITRARY
5, 36.9745, 37.5, 36.9745, 60.5, 4.
-21.5255, 60.5, 4.
-21.5255, -60.5, 4.
36.9745, -60.5, 4.
36.9745, -37.5, 4.
-1.,0.,0.
** Section: P5  Profile: C100
*Beam Section, elset=P5, material=S235JR, poisson = 0.3, temperature=GRADIENTS, section=ARBITRARY
5, 29.1607, 30., 29.1607, 48., 4.
-16.8393, 48., 4.
-16.8393, -48., 4.
29.1607, -48., 4.
29.1607, -30., 4.
0.,0.906351,0.422525
** Section: P2  Profile: C125
*Beam Section, elset=P2, material=S355JR, poisson = 0.3, temperature=GRADIENTS, section=ARBITRARY
5, 36.9745, 37.5, 36.9745, 60.5, 4.
-21.5255, 60.5, 4.
-21.5255, -60.5, 4.
36.9745, -60.5, 4.
36.9745, -37.5, 4.
1.,0.,0.
*RELEASE
80, S2, M1
1296, S2, M1
1403, S2, M1
1510, S2, M1
1617, S2, M1
77, S2, M1
1293, S2, M1
1400, S2, M1
1507, S2, M1
1614, S2, M1
1, S1, M1
44, S2, M1
1217, S1, M1
1260, S2, M1
1324, S1, M1
1367, S2, M1
1431, S1, M1
1474, S2, M1
1538, S1, M1
1581, S2, M1
*MPC
BEAM, 76, 36
BEAM, 75, 37
BEAM, 82, 46
BEAM, 81, 45
BEAM, 70, 49
BEAM, 69, 66
BEAM, 88, 48
BEAM, 87, 65
BEAM, 4, 10
BEAM, 3, 9
*End Part
**  
**
** ASSEMBLY
**
*Assembly, name=Assembly
**  
*Instance, name=FRAME, part=SteelFrame
*End Instance
**  
*Nset, nset=BASES, instance=FRAME
  5,  6, 71, 72, 77, 78, 83, 84, 89, 90
*Nset, nset=CONTACT_ROW_1, instance=FRAME
 12, 13, 14, 15, 16, 17, 18, 19, 20, 21, 22, 24, 25, 26, 27, 28
 29, 30, 31, 32, 33, 34
*Nset, nset=CONTACT_ROW_2, instance=FRAME
  7, 39, 40, 41, 42, 43, 44, 47, 50, 51, 52, 53, 54, 55, 56, 57
 58, 59, 61, 62, 63, 64
*End Assembly
** 
** MATERIALS
** 
*Material, name=S235JR
*Density
 7.85e-09,
*Elastic
210000., 0.3
*Material, name=S355JR
*Density
 7.85e-09,
*Elastic
210000., 0.3
** 
** BOUNDARY CONDITIONS
** 
** Name: GroundFixity Type: Symmetry/Antisymmetry/Encastre
*Boundary
BASES, ENCASTRE
** ----------------------------------------------------------------
** 
** STEP: D
** 
*Step, name=D, nlgeom=NO, inc=1000
*Static
1., 1., 1e-05, 1.
** 
** LOADS
** 
** Name: D_Contact_1   Type: Concentrated force
*Cload, op=NEW
CONTACT_ROW_1, 2, 0.
CONTACT_ROW_1, 3, -253.985
** Name: D_Contact_2   Type: Concentrated force
*Cload, op=NEW
CONTACT_ROW_2, 2, 0.
CONTACT_ROW_2, 3, -253.985
** Name: D_SteelGravity   Type: Gravity
*Dload, op=NEW
, GRAV, 9810., 0., 0., -1.
** 
** OUTPUT REQUESTS
** 
*Restart, write, frequency=0
** 
** FIELD OUTPUT: Nodal
** 
*Output, field, frequency=99999
*Node Output
RF, RM, U
** 
** FIELD OUTPUT: Section_P2
** 
*Element Output, elset=FRAME.P2, directions=YES
1, 2, 3, 4, 5, 6, 7, 8, 9, 10, 11
S, SF
** 
** FIELD OUTPUT: Section_P3
** 
*Element Output, elset=FRAME.P3, directions=YES
1, 2, 3, 4, 5, 6, 7, 8, 9, 10, 11
S, SF
** 
** FIELD OUTPUT: Section_P4
** 
*Element Output, elset=FRAME.P4, directions=YES
1, 2, 3, 4, 5, 6, 7, 8, 9, 10, 11
S, SF
** 
** FIELD OUTPUT: Section_P5
** 
*Element Output, elset=FRAME.P5, directions=YES
1, 2, 3, 4, 5, 6, 7, 8, 9, 10, 11
S, SF
** 
** FIELD OUTPUT: Section_P6
** 
*Element Output, elset=FRAME.P6, directions=YES
1, 2, 3, 4, 5, 6, 7
S, SF
** 
** HISTORY OUTPUT: Energy
** 
*Output, history
*Energy Output
ALLSE, ALLWK
*End Step
** ----------------------------------------------------------------
** 
** STEP: S
** 
*Step, name=S, nlgeom=NO, inc=1000
*Static
1., 1., 1e-05, 1.
** 
** LOADS
** 
** Name: D_Contact_1   Type: Concentrated force
*Cload, op=NEW
** Name: D_Contact_2   Type: Concentrated force
*Cload, op=NEW
** Name: D_SteelGravity   Type: Gravity
*Dload, op=NEW
** Name: S_Contact_1   Type: Concentrated force
*Cload, op=NEW
CONTACT_ROW_1, 2, 0.
CONTACT_ROW_1, 3, -1466.4
** Name: S_Contact_2   Type: Concentrated force
*Cload, op=NEW
CONTACT_ROW_2, 2, 0.
CONTACT_ROW_2, 3, -1466.4
** 
** OUTPUT REQUESTS
** 
*Restart, write, frequency=0
** 
** FIELD OUTPUT: Nodal
** 
*Output, field, frequency=99999
*Node Output
RF, RM, U
** 
** FIELD OUTPUT: Section_P2
** 
*Element Output, elset=FRAME.P2, directions=YES
1, 2, 3, 4, 5, 6, 7, 8, 9, 10, 11
S, SF
** 
** FIELD OUTPUT: Section_P3
** 
*Element Output, elset=FRAME.P3, directions=YES
1, 2, 3, 4, 5, 6, 7, 8, 9, 10, 11
S, SF
** 
** FIELD OUTPUT: Section_P4
** 
*Element Output, elset=FRAME.P4, directions=YES
1, 2, 3, 4, 5, 6, 7, 8, 9, 10, 11
S, SF
** 
** FIELD OUTPUT: Section_P5
** 
*Element Output, elset=FRAME.P5, directions=YES
1, 2, 3, 4, 5, 6, 7, 8, 9, 10, 11
S, SF
** 
** FIELD OUTPUT: Section_P6
** 
*Element Output, elset=FRAME.P6, directions=YES
1, 2, 3, 4, 5, 6, 7
S, SF
** 
** HISTORY OUTPUT: Energy
** 
*Output, history
*Energy Output
ALLSE, ALLWK
*End Step
** ----------------------------------------------------------------
** 
** STEP: W
** 
*Step, name=W, nlgeom=NO, inc=1000
*Static
1., 1., 1e-05, 1.
** 
** LOADS
** 
** Name: S_Contact_1   Type: Concentrated force
*Cload, op=NEW
** Name: S_Contact_2   Type: Concentrated force
*Cload, op=NEW
** Name: W_Contact_1   Type: Concentrated force
*Cload, op=NEW
CONTACT_ROW_1, 2, 71.112
CONTACT_ROW_1, 3, -152.541
** Name: W_Contact_2   Type: Concentrated force
*Cload, op=NEW
CONTACT_ROW_2, 2, 71.112
CONTACT_ROW_2, 3, -152.541
** 
** OUTPUT REQUESTS
** 
*Restart, write, frequency=0
** 
** FIELD OUTPUT: Nodal
** 
*Output, field, frequency=99999
*Node Output
RF, RM, U
** 
** FIELD OUTPUT: Section_P2
** 
*Element Output, elset=FRAME.P2, directions=YES
1, 2, 3, 4, 5, 6, 7, 8, 9, 10, 11
S, SF
** 
** FIELD OUTPUT: Section_P3
** 
*Element Output, elset=FRAME.P3, directions=YES
1, 2, 3, 4, 5, 6, 7, 8, 9, 10, 11
S, SF
** 
** FIELD OUTPUT: Section_P4
** 
*Element Output, elset=FRAME.P4, directions=YES
1, 2, 3, 4, 5, 6, 7, 8, 9, 10, 11
S, SF
** 
** FIELD OUTPUT: Section_P5
** 
*Element Output, elset=FRAME.P5, directions=YES
1, 2, 3, 4, 5, 6, 7, 8, 9, 10, 11
S, SF
** 
** FIELD OUTPUT: Section_P6
** 
*Element Output, elset=FRAME.P6, directions=YES
1, 2, 3, 4, 5, 6, 7
S, SF
** 
** HISTORY OUTPUT: Energy
** 
*Output, history
*Energy Output
ALLSE, ALLWK
*End Step
** ----------------------------------------------------------------
** 
** STEP: D_07S
** 
*Step, name=D_07S, nlgeom=NO, inc=1000
*Static
1., 1., 1e-05, 1.
** 
** LOADS
** 
** Name: D_07S_Contact_1   Type: Concentrated force
*Cload, op=NEW
CONTACT_ROW_1, 2, 0.
CONTACT_ROW_1, 3, -1280.47
** Name: D_07S_Contact_2   Type: Concentrated force
*Cload, op=NEW
CONTACT_ROW_2, 2, 0.
CONTACT_ROW_2, 3, -1280.47
** Name: D_07S_SteelGravity   Type: Gravity
*Dload, op=NEW
, GRAV, 9810., 0., 0., -1.
** Name: W_Contact_1   Type: Concentrated force
*Cload, op=NEW
** Name: W_Contact_2   Type: Concentrated force
*Cload, op=NEW
** 
** OUTPUT REQUESTS
** 
*Restart, write, frequency=0
** 
** FIELD OUTPUT: Nodal
** 
*Output, field, frequency=99999
*Node Output
RF, RM, U
** 
** FIELD OUTPUT: Section_P2
** 
*Element Output, elset=FRAME.P2, directions=YES
1, 2, 3, 4, 5, 6, 7, 8, 9, 10, 11
S, SF
** 
** FIELD OUTPUT: Section_P3
** 
*Element Output, elset=FRAME.P3, directions=YES
1, 2, 3, 4, 5, 6, 7, 8, 9, 10, 11
S, SF
** 
** FIELD OUTPUT: Section_P4
** 
*Element Output, elset=FRAME.P4, directions=YES
1, 2, 3, 4, 5, 6, 7, 8, 9, 10, 11
S, SF
** 
** FIELD OUTPUT: Section_P5
** 
*Element Output, elset=FRAME.P5, directions=YES
1, 2, 3, 4, 5, 6, 7, 8, 9, 10, 11
S, SF
** 
** FIELD OUTPUT: Section_P6
** 
*Element Output, elset=FRAME.P6, directions=YES
1, 2, 3, 4, 5, 6, 7
S, SF
** 
** HISTORY OUTPUT: Energy
** 
*Output, history
*Energy Output
ALLSE, ALLWK
*End Step
** ----------------------------------------------------------------
** 
** STEP: D_S
** 
*Step, name=D_S, nlgeom=NO, inc=1000
*Static
1., 1., 1e-05, 1.
** 
** LOADS
** 
** Name: D_07S_Contact_1   Type: Concentrated force
*Cload, op=NEW
** Name: D_07S_Contact_2   Type: Concentrated force
*Cload, op=NEW
** Name: D_07S_SteelGravity   Type: Gravity
*Dload, op=NEW
** Name: D_S_Contact_1   Type: Concentrated force
*Cload, op=NEW
CONTACT_ROW_1, 2, 0.
CONTACT_ROW_1, 3, -1720.39
** Name: D_S_Contact_2   Type: Concentrated force
*Cload, op=NEW
CONTACT_ROW_2, 2, 0.
CONTACT_ROW_2, 3, -1720.39
** Name: D_S_SteelGravity   Type: Gravity
*Dload, op=NEW
, GRAV, 9810., 0., 0., -1.
** 
** OUTPUT REQUESTS
** 
*Restart, write, frequency=0
** 
** FIELD OUTPUT: Nodal
** 
*Output, field, frequency=99999
*Node Output
RF, RM, U
** 
** FIELD OUTPUT: Section_P2
** 
*Element Output, elset=FRAME.P2, directions=YES
1, 2, 3, 4, 5, 6, 7, 8, 9, 10, 11
S, SF
** 
** FIELD OUTPUT: Section_P3
** 
*Element Output, elset=FRAME.P3, directions=YES
1, 2, 3, 4, 5, 6, 7, 8, 9, 10, 11
S, SF
** 
** FIELD OUTPUT: Section_P4
** 
*Element Output, elset=FRAME.P4, directions=YES
1, 2, 3, 4, 5, 6, 7, 8, 9, 10, 11
S, SF
** 
** FIELD OUTPUT: Section_P5
** 
*Element Output, elset=FRAME.P5, directions=YES
1, 2, 3, 4, 5, 6, 7, 8, 9, 10, 11
S, SF
** 
** FIELD OUTPUT: Section_P6
** 
*Element Output, elset=FRAME.P6, directions=YES
1, 2, 3, 4, 5, 6, 7
S, SF
** 
** HISTORY OUTPUT: Energy
** 
*Output, history
*Energy Output
ALLSE, ALLWK
*End Step
** ----------------------------------------------------------------
** 
** STEP: D_S_W
** 
*Step, name=D_S_W, nlgeom=NO, inc=1000
*Static
1., 1., 1e-05, 1.
** 
** LOADS
** 
** Name: D_S_Contact_1   Type: Concentrated force
*Cload, op=NEW
** Name: D_S_Contact_2   Type: Concentrated force
*Cload, op=NEW
** Name: D_S_SteelGravity   Type: Gravity
*Dload, op=NEW
** Name: D_S_W_Contact_1   Type: Concentrated force
*Cload, op=NEW
CONTACT_ROW_1, 2, 71.112
CONTACT_ROW_1, 3, -1872.93
** Name: D_S_W_Contact_2   Type: Concentrated force
*Cload, op=NEW
CONTACT_ROW_2, 2, 71.112
CONTACT_ROW_2, 3, -1872.93
** Name: D_S_W_SteelGravity   Type: Gravity
*Dload, op=NEW
, GRAV, 9810., 0., 0., -1.
** 
** OUTPUT REQUESTS
** 
*Restart, write, frequency=0
** 
** FIELD OUTPUT: Nodal
** 
*Output, field, frequency=99999
*Node Output
RF, RM, U
** 
** FIELD OUTPUT: Section_P2
** 
*Element Output, elset=FRAME.P2, directions=YES
1, 2, 3, 4, 5, 6, 7, 8, 9, 10, 11
S, SF
** 
** FIELD OUTPUT: Section_P3
** 
*Element Output, elset=FRAME.P3, directions=YES
1, 2, 3, 4, 5, 6, 7, 8, 9, 10, 11
S, SF
** 
** FIELD OUTPUT: Section_P4
** 
*Element Output, elset=FRAME.P4, directions=YES
1, 2, 3, 4, 5, 6, 7, 8, 9, 10, 11
S, SF
** 
** FIELD OUTPUT: Section_P5
** 
*Element Output, elset=FRAME.P5, directions=YES
1, 2, 3, 4, 5, 6, 7, 8, 9, 10, 11
S, SF
** 
** FIELD OUTPUT: Section_P6
** 
*Element Output, elset=FRAME.P6, directions=YES
1, 2, 3, 4, 5, 6, 7
S, SF
** 
** HISTORY OUTPUT: Energy
** 
*Output, history
*Energy Output
ALLSE, ALLWK
*End Step
** ----------------------------------------------------------------
** 
** STEP: D_S_mW
** 
*Step, name=D_S_mW, nlgeom=NO, inc=1000
*Static
1., 1., 1e-05, 1.
** 
** LOADS
** 
** Name: D_S_W_Contact_1   Type: Concentrated force
*Cload, op=NEW
** Name: D_S_W_Contact_2   Type: Concentrated force
*Cload, op=NEW
** Name: D_S_W_SteelGravity   Type: Gravity
*Dload, op=NEW
** Name: D_S_mW_Contact_1   Type: Concentrated force
*Cload, op=NEW
CONTACT_ROW_1, 2, -71.112
CONTACT_ROW_1, 3, -1567.84
** Name: D_S_mW_Contact_2   Type: Concentrated force
*Cload, op=NEW
CONTACT_ROW_2, 2, -71.112
CONTACT_ROW_2, 3, -1567.84
** Name: D_S_mW_SteelGravity   Type: Gravity
*Dload, op=NEW
, GRAV, 9810., 0., 0., -1.
** 
** OUTPUT REQUESTS
** 
*Restart, write, frequency=0
** 
** FIELD OUTPUT: Nodal
** 
*Output, field, frequency=99999
*Node Output
RF, RM, U
** 
** FIELD OUTPUT: Section_P2
** 
*Element Output, elset=FRAME.P2, directions=YES
1, 2, 3, 4, 5, 6, 7, 8, 9, 10, 11
S, SF
** 
** FIELD OUTPUT: Section_P3
** 
*Element Output, elset=FRAME.P3, directions=YES
1, 2, 3, 4, 5, 6, 7, 8, 9, 10, 11
S, SF
** 
** FIELD OUTPUT: Section_P4
** 
*Element Output, elset=FRAME.P4, directions=YES
1, 2, 3, 4, 5, 6, 7, 8, 9, 10, 11
S, SF
** 
** FIELD OUTPUT: Section_P5
** 
*Element Output, elset=FRAME.P5, directions=YES
1, 2, 3, 4, 5, 6, 7, 8, 9, 10, 11
S, SF
** 
** FIELD OUTPUT: Section_P6
** 
*Element Output, elset=FRAME.P6, directions=YES
1, 2, 3, 4, 5, 6, 7
S, SF
** 
** HISTORY OUTPUT: Energy
** 
*Output, history
*Energy Output
ALLSE, ALLWK
*End Step
** ----------------------------------------------------------------
** 
** STEP: C09D_W
** 
*Step, name=C09D_W, nlgeom=NO, inc=1000
*Static
1., 1., 1e-05, 1.
** 
** LOADS
** 
** Name: C09D_W_Contact_1   Type: Concentrated force
*Cload, op=NEW
CONTACT_ROW_1, 2, 71.112
CONTACT_ROW_1, 3, -381.128
** Name: C09D_W_Contact_2   Type: Concentrated force
*Cload, op=NEW
CONTACT_ROW_2, 2, 71.112
CONTACT_ROW_2, 3, -381.128
** Name: C09D_W_SteelGravity   Type: Gravity
*Dload, op=NEW
, GRAV, 8829., 0., 0., -1.
** Name: D_S_mW_Contact_1   Type: Concentrated force
*Cload, op=NEW
** Name: D_S_mW_Contact_2   Type: Concentrated force
*Cload, op=NEW
** Name: D_S_mW_SteelGravity   Type: Gravity
*Dload, op=NEW
** 
** OUTPUT REQUESTS
** 
*Restart, write, frequency=0
** 
** FIELD OUTPUT: Nodal
** 
*Output, field, frequency=99999
*Node Output
RF, RM, U
** 
** FIELD OUTPUT: Section_P2
** 
*Element Output, elset=FRAME.P2, directions=YES
1, 2, 3, 4, 5, 6, 7, 8, 9, 10, 11
S, SF
** 
** FIELD OUTPUT: Section_P3
** 
*Element Output, elset=FRAME.P3, directions=YES
1, 2, 3, 4, 5, 6, 7, 8, 9, 10, 11
S, SF
** 
** FIELD OUTPUT: Section_P4
** 
*Element Output, elset=FRAME.P4, directions=YES
1, 2, 3, 4, 5, 6, 7, 8, 9, 10, 11
S, SF
** 
** FIELD OUTPUT: Section_P5
** 
*Element Output, elset=FRAME.P5, directions=YES
1, 2, 3, 4, 5, 6, 7, 8, 9, 10, 11
S, SF
** 
** FIELD OUTPUT: Section_P6
** 
*Element Output, elset=FRAME.P6, directions=YES
1, 2, 3, 4, 5, 6, 7
S, SF
** 
** HISTORY OUTPUT: Energy
** 
*Output, history
*Energy Output
ALLSE, ALLWK
*End Step
** ----------------------------------------------------------------
** 
** STEP: C09D_mW
** 
*Step, name=C09D_mW, nlgeom=NO, inc=1000
*Static
1., 1., 1e-05, 1.
** 
** LOADS
** 
** Name: C09D_W_Contact_1   Type: Concentrated force
*Cload, op=NEW
** Name: C09D_W_Contact_2   Type: Concentrated force
*Cload, op=NEW
** Name: C09D_W_SteelGravity   Type: Gravity
*Dload, op=NEW
** Name: C09D_mW_Contact_1   Type: Concentrated force
*Cload, op=NEW
CONTACT_ROW_1, 2, -71.112
CONTACT_ROW_1, 3, -76.0451
** Name: C09D_mW_Contact_2   Type: Concentrated force
*Cload, op=NEW
CONTACT_ROW_2, 2, -71.112
CONTACT_ROW_2, 3, -76.0451
** Name: C09D_mW_SteelGravity   Type: Gravity
*Dload, op=NEW
, GRAV, 8829., 0., 0., -1.
** 
** OUTPUT REQUESTS
** 
*Restart, write, frequency=0
** 
** FIELD OUTPUT: Nodal
** 
*Output, field, frequency=99999
*Node Output
RF, RM, U
** 
** FIELD OUTPUT: Section_P2
** 
*Element Output, elset=FRAME.P2, directions=YES
1, 2, 3, 4, 5, 6, 7, 8, 9, 10, 11
S, SF
** 
** FIELD OUTPUT: Section_P3
** 
*Element Output, elset=FRAME.P3, directions=YES
1, 2, 3, 4, 5, 6, 7, 8, 9, 10, 11
S, SF
** 
** FIELD OUTPUT: Section_P4
** 
*Element Output, elset=FRAME.P4, directions=YES
1, 2, 3, 4, 5, 6, 7, 8, 9, 10, 11
S, SF
** 
** FIELD OUTPUT: Section_P5
** 
*Element Output, elset=FRAME.P5, directions=YES
1, 2, 3, 4, 5, 6, 7, 8, 9, 10, 11
S, SF
** 
** FIELD OUTPUT: Section_P6
** 
*Element Output, elset=FRAME.P6, directions=YES
1, 2, 3, 4, 5, 6, 7
S, SF
** 
** HISTORY OUTPUT: Energy
** 
*Output, history
*Energy Output
ALLSE, ALLWK
*End Step
