*Heading
 Solar support; see assumptions and run metadata; N mm tonne s
** Job name: Solar_008_centroid_height Model name: SolarSupport
** Generated by: Abaqus/CAE 2024
*Preprint, echo=NO, model=NO, history=NO, contact=NO
**
** PARTS
**
*Part, name=SteelFrame
*Node
      1,   17735.5449,   2433.50488,   2119.35596
      2,       18148.,   2433.50488,   2119.35596
      3,       18148.,   2888.94629,   2331.67456
      4,   16910.6367,   2433.50488,   2119.35596
      5,       18148.,   2134.36011,   1979.90002
      6,   16085.7275,   2433.50488,   2119.35596
      7,   15260.8184,   2433.50488,   2119.35596
      8,   14435.9092,   2433.50488,   2119.35596
      9,       13611.,   2433.50488,   2119.35596
     10,   12786.0908,   2433.50488,   2119.35596
     11,   11961.1816,   2433.50488,   2119.35596
     12,   11136.2725,   2433.50488,   2119.35596
     13,   10311.3633,   2433.50488,   2119.35596
     14,    9486.4541,   2433.50488,   2119.35596
     15,        9074.,   2433.50488,   2119.35596
     16,    8661.5459,   2433.50488,   2119.35596
     17,   7836.63623,   2433.50488,   2119.35596
     18,   7011.72705,   2433.50488,   2119.35596
     19,   6186.81836,   2433.50488,   2119.35596
     20,   5361.90918,   2433.50488,   2119.35596
     21,        4537.,   2433.50488,   2119.35596
     22,   3712.09082,   2433.50488,   2119.35596
     23,   2887.18188,   2433.50488,   2119.35596
     24,   2062.27271,   2433.50488,   2119.35596
     25,   1237.36365,   2433.50488,   2119.35596
     26,   412.454559,   2433.50488,   2119.35596
     27,           0.,   2433.50488,   2119.35596
     28,           0.,   2888.94629,   2331.67456
     29,       18148.,   1522.62158,   1694.71863
     30,       18148.,   611.738403,   1270.08142
     31,       18148.,           0.,   984.900024
     32,       18148.,  -299.144806,   845.444092
     33,       18148.,  -754.586365,   633.125488
     34,       13611.,   2888.94629,   2331.67456
     35,       13611.,   2134.36011,   1979.90002
     36,       13611.,   1522.62158,   1694.71863
     37,       13611.,   611.738403,   1270.08142
     38,       13611.,           0.,   984.900024
     39,       13611.,  -299.144806,   845.444092
     40,       13611.,  -754.586365,   633.125488
     41,        9074.,   2888.94629,   2331.67456
     42,        9074.,   2134.36011,   1979.90002
     43,        9074.,   1522.62158,   1694.71863
     44,        9074.,   611.738403,   1270.08142
     45,        9074.,           0.,   984.900024
     46,        9074.,  -299.144806,   845.444092
     47,        9074.,  -754.586365,   633.125488
     48,        4537.,   2888.94629,   2331.67456
     49,        4537.,   2134.36011,   1979.90002
     50,        4537.,   1522.62158,   1694.71863
     51,        4537.,   611.738403,   1270.08142
     52,        4537.,           0.,   984.900024
     53,        4537.,  -299.144806,   845.444092
     54,        4537.,  -754.586365,   633.125488
     55,           0.,   2134.36011,   1979.90002
     56,           0.,   1522.62158,   1694.71863
     57,           0.,   611.738403,   1270.08142
     58,           0.,           0.,   984.900024
     59,           0.,  -299.144806,   845.444092
     60,           0.,  -754.586365,   633.125488
     61,       18148.,   2134.36011,   416.769989
     62,       18148.,   2134.36011,           0.
     63,   17735.5449,   1522.62158,   1694.71863
     64,   16910.6367,   1522.62158,   1694.71863
     65,   16085.7275,   1522.62158,   1694.71863
     66,   15260.8184,   1522.62158,   1694.71863
     67,   14435.9092,   1522.62158,   1694.71863
     68,   12786.0908,   1522.62158,   1694.71863
     69,   11961.1816,   1522.62158,   1694.71863
     70,   11136.2725,   1522.62158,   1694.71863
     71,   10311.3633,   1522.62158,   1694.71863
     72,    9486.4541,   1522.62158,   1694.71863
     73,    8661.5459,   1522.62158,   1694.71863
     74,   7836.63623,   1522.62158,   1694.71863
     75,   7011.72705,   1522.62158,   1694.71863
     76,   6186.81836,   1522.62158,   1694.71863
     77,   5361.90918,   1522.62158,   1694.71863
     78,   3712.09082,   1522.62158,   1694.71863
     79,   2887.18188,   1522.62158,   1694.71863
     80,   2062.27271,   1522.62158,   1694.71863
     81,   1237.36365,   1522.62158,   1694.71863
     82,   412.454559,   1522.62158,   1694.71863
     83,   17735.5449,   611.738403,   1270.08142
     84,   16910.6367,   611.738403,   1270.08142
     85,   16085.7275,   611.738403,   1270.08142
     86,   15260.8184,   611.738403,   1270.08142
     87,   14435.9092,   611.738403,   1270.08142
     88,   12786.0908,   611.738403,   1270.08142
     89,   11961.1816,   611.738403,   1270.08142
     90,   11136.2725,   611.738403,   1270.08142
     91,   10311.3633,   611.738403,   1270.08142
     92,    9486.4541,   611.738403,   1270.08142
     93,    8661.5459,   611.738403,   1270.08142
     94,   7836.63623,   611.738403,   1270.08142
     95,   7011.72705,   611.738403,   1270.08142
     96,   6186.81836,   611.738403,   1270.08142
     97,   5361.90918,   611.738403,   1270.08142
     98,   3712.09082,   611.738403,   1270.08142
     99,   2887.18188,   611.738403,   1270.08142
    100,   2062.27271,   611.738403,   1270.08142
    101,   1237.36365,   611.738403,   1270.08142
    102,   412.454559,   611.738403,   1270.08142
    103,       18148.,           0.,   859.900024
    104,       18148.,           0.,           0.
    105,   17735.5449,  -299.144806,   845.444092
    106,   16910.6367,  -299.144806,   845.444092
    107,   16085.7275,  -299.144806,   845.444092
    108,   15260.8184,  -299.144806,   845.444092
    109,   14435.9092,  -299.144806,   845.444092
    110,   12786.0908,  -299.144806,   845.444092
    111,   11961.1816,  -299.144806,   845.444092
    112,   11136.2725,  -299.144806,   845.444092
    113,   10311.3633,  -299.144806,   845.444092
    114,    9486.4541,  -299.144806,   845.444092
    115,    8661.5459,  -299.144806,   845.444092
    116,   7836.63623,  -299.144806,   845.444092
    117,   7011.72705,  -299.144806,   845.444092
    118,   6186.81836,  -299.144806,   845.444092
    119,   5361.90918,  -299.144806,   845.444092
    120,   3712.09082,  -299.144806,   845.444092
    121,   2887.18188,  -299.144806,   845.444092
    122,   2062.27271,  -299.144806,   845.444092
    123,   1237.36365,  -299.144806,   845.444092
    124,   412.454559,  -299.144806,   845.444092
    125,       13611.,   2134.36011,   416.769989
    126,       13611.,   2134.36011,           0.
    127,       13611.,           0.,   859.900024
    128,       13611.,           0.,           0.
    129,        9074.,   2134.36011,   416.769989
    130,        9074.,   2134.36011,           0.
    131,        9074.,           0.,   859.900024
    132,        9074.,           0.,           0.
    133,        4537.,   2134.36011,   416.769989
    134,        4537.,   2134.36011,           0.
    135,        4537.,           0.,   859.900024
    136,        4537.,           0.,           0.
    137,           0.,   2134.36011,   416.769989
    138,           0.,   2134.36011,           0.
    139,           0.,           0.,   859.900024
    140,           0.,           0.,           0.
    141,   17941.7734,   2433.50488,   2119.35596
    142,       18148.,    2585.3186,   2190.12866
    143,       18148.,   2737.13257,   2260.90161
    144,   17116.8633,   2433.50488,   2119.35596
    145,   17323.0918,   2433.50488,   2119.35596
    146,   17529.3184,   2433.50488,   2119.35596
    147,       18148.,   2283.93237,   2049.62793
    148,   16291.9541,   2433.50488,   2119.35596
    149,   16498.1816,   2433.50488,   2119.35596
    150,   16704.4082,   2433.50488,   2119.35596
    151,   15467.0459,   2433.50488,   2119.35596
    152,   15673.2725,   2433.50488,   2119.35596
    153,      15879.5,   2433.50488,   2119.35596
    154,   14642.1367,   2433.50488,   2119.35596
    155,   14848.3633,   2433.50488,   2119.35596
    156,   15054.5908,   2433.50488,   2119.35596
    157,   13817.2275,   2433.50488,   2119.35596
    158,   14023.4541,   2433.50488,   2119.35596
    159,   14229.6816,   2433.50488,   2119.35596
    160,   12992.3184,   2433.50488,   2119.35596
    161,   13198.5459,   2433.50488,   2119.35596
    162,   13404.7725,   2433.50488,   2119.35596
    163,   12167.4092,   2433.50488,   2119.35596
    164,   12373.6367,   2433.50488,   2119.35596
    165,   12579.8633,   2433.50488,   2119.35596
    166,      11342.5,   2433.50488,   2119.35596
    167,   11548.7275,   2433.50488,   2119.35596
    168,   11754.9541,   2433.50488,   2119.35596
    169,   10517.5908,   2433.50488,   2119.35596
    170,   10723.8184,   2433.50488,   2119.35596
    171,   10930.0459,   2433.50488,   2119.35596
    172,   9692.68164,   2433.50488,   2119.35596
    173,   9898.90918,   2433.50488,   2119.35596
    174,   10105.1367,   2433.50488,   2119.35596
    175,   9280.22754,   2433.50488,   2119.35596
    176,   8867.77246,   2433.50488,   2119.35596
    177,   8042.86377,   2433.50488,   2119.35596
    178,   8249.09082,   2433.50488,   2119.35596
    179,   8455.31836,   2433.50488,   2119.35596
    180,   7217.95459,   2433.50488,   2119.35596
    181,   7424.18164,   2433.50488,   2119.35596
    182,   7630.40918,   2433.50488,   2119.35596
    183,   6393.04541,   2433.50488,   2119.35596
    184,   6599.27295,   2433.50488,   2119.35596
    185,       6805.5,   2433.50488,   2119.35596
    186,   5568.13623,   2433.50488,   2119.35596
    187,   5774.36377,   2433.50488,   2119.35596
    188,   5980.59082,   2433.50488,   2119.35596
    189,   4743.22705,   2433.50488,   2119.35596
    190,   4949.45459,   2433.50488,   2119.35596
    191,   5155.68164,   2433.50488,   2119.35596
    192,   3918.31812,   2433.50488,   2119.35596
    193,   4124.54541,   2433.50488,   2119.35596
    194,   4330.77295,   2433.50488,   2119.35596
    195,   3093.40918,   2433.50488,   2119.35596
    196,   3299.63647,   2433.50488,   2119.35596
    197,   3505.86353,   2433.50488,   2119.35596
    198,       2268.5,   2433.50488,   2119.35596
    199,   2474.72729,   2433.50488,   2119.35596
    200,   2680.95459,   2433.50488,   2119.35596
    201,   1443.59094,   2433.50488,   2119.35596
    202,   1649.81824,   2433.50488,   2119.35596
    203,   1856.04541,   2433.50488,   2119.35596
    204,   618.681824,   2433.50488,   2119.35596
    205,   824.909119,   2433.50488,   2119.35596
    206,   1031.13635,   2433.50488,   2119.35596
    207,    206.22728,   2433.50488,   2119.35596
    208,           0.,    2585.3186,   2190.12866
    209,           0.,   2737.13257,   2260.90161
    210,       18148.,   1726.53442,   1789.77905
    211,       18148.,   1930.44714,    1884.8396
    212,       18148.,   793.915039,   1355.00879
    213,       18148.,   976.091675,   1439.93628
    214,       18148.,   1158.26831,   1524.86377
    215,       18148.,   1340.44495,   1609.79114
    216,       18148.,   203.912796,   1079.96045
    217,       18148.,   407.825592,   1175.02087
    218,       18148.,  -149.572403,   915.172058
    219,       18148.,  -602.772522,   703.898376
    220,       18148.,  -450.958649,   774.671265
    221,       13611.,    2585.3186,   2190.12866
    222,       13611.,   2737.13257,   2260.90161
    223,       13611.,   2283.93237,   2049.62793
    224,       13611.,   1726.53442,   1789.77905
    225,       13611.,   1930.44714,    1884.8396
    226,       13611.,   793.915039,   1355.00879
    227,       13611.,   976.091675,   1439.93628
    228,       13611.,   1158.26831,   1524.86377
    229,       13611.,   1340.44495,   1609.79114
    230,       13611.,   203.912796,   1079.96045
    231,       13611.,   407.825592,   1175.02087
    232,       13611.,  -149.572403,   915.172058
    233,       13611.,  -602.772522,   703.898376
    234,       13611.,  -450.958649,   774.671265
    235,        9074.,    2585.3186,   2190.12866
    236,        9074.,   2737.13257,   2260.90161
    237,        9074.,   2283.93237,   2049.62793
    238,        9074.,   1726.53442,   1789.77905
    239,        9074.,   1930.44714,    1884.8396
    240,        9074.,   793.915039,   1355.00879
    241,        9074.,   976.091675,   1439.93628
    242,        9074.,   1158.26831,   1524.86377
    243,        9074.,   1340.44495,   1609.79114
    244,        9074.,   203.912796,   1079.96045
    245,        9074.,   407.825592,   1175.02087
    246,        9074.,  -149.572403,   915.172058
    247,        9074.,  -602.772522,   703.898376
    248,        9074.,  -450.958649,   774.671265
    249,        4537.,    2585.3186,   2190.12866
    250,        4537.,   2737.13257,   2260.90161
    251,        4537.,   2283.93237,   2049.62793
    252,        4537.,   1726.53442,   1789.77905
    253,        4537.,   1930.44714,    1884.8396
    254,        4537.,   793.915039,   1355.00879
    255,        4537.,   976.091675,   1439.93628
    256,        4537.,   1158.26831,   1524.86377
    257,        4537.,   1340.44495,   1609.79114
    258,        4537.,   203.912796,   1079.96045
    259,        4537.,   407.825592,   1175.02087
    260,        4537.,  -149.572403,   915.172058
    261,        4537.,  -602.772522,   703.898376
    262,        4537.,  -450.958649,   774.671265
    263,           0.,   2283.93237,   2049.62793
    264,           0.,   1726.53442,   1789.77905
    265,           0.,   1930.44714,    1884.8396
    266,           0.,   793.915039,   1355.00879
    267,           0.,   976.091675,   1439.93628
    268,           0.,   1158.26831,   1524.86377
    269,           0.,   1340.44495,   1609.79114
    270,           0.,   203.912796,   1079.96045
    271,           0.,   407.825592,   1175.02087
    272,           0.,  -149.572403,   915.172058
    273,           0.,  -602.772522,   703.898376
    274,           0.,  -450.958649,   774.671265
    275,       18148.,   2134.36011,   612.161255
    276,       18148.,   2134.36011,    807.55249
    277,       18148.,   2134.36011,   1002.94373
    278,       18148.,   2134.36011,   1198.33496
    279,       18148.,   2134.36011,    1393.7262
    280,       18148.,   2134.36011,   1589.11755
    281,       18148.,   2134.36011,   1784.50879
    282,       18148.,   2134.36011,   208.384995
    283,   17941.7734,   1522.62158,   1694.71863
    284,   17116.8633,   1522.62158,   1694.71863
    285,   17323.0918,   1522.62158,   1694.71863
    286,   17529.3184,   1522.62158,   1694.71863
    287,   16291.9541,   1522.62158,   1694.71863
    288,   16498.1816,   1522.62158,   1694.71863
    289,   16704.4082,   1522.62158,   1694.71863
    290,   15467.0459,   1522.62158,   1694.71863
    291,   15673.2725,   1522.62158,   1694.71863
    292,      15879.5,   1522.62158,   1694.71863
    293,   14642.1367,   1522.62158,   1694.71863
    294,   14848.3633,   1522.62158,   1694.71863
    295,   15054.5908,   1522.62158,   1694.71863
    296,   13817.2275,   1522.62158,   1694.71863
    297,   14023.4541,   1522.62158,   1694.71863
    298,   14229.6816,   1522.62158,   1694.71863
    299,   12992.3184,   1522.62158,   1694.71863
    300,   13198.5459,   1522.62158,   1694.71863
    301,   13404.7725,   1522.62158,   1694.71863
    302,   12167.4092,   1522.62158,   1694.71863
    303,   12373.6367,   1522.62158,   1694.71863
    304,   12579.8633,   1522.62158,   1694.71863
    305,      11342.5,   1522.62158,   1694.71863
    306,   11548.7275,   1522.62158,   1694.71863
    307,   11754.9541,   1522.62158,   1694.71863
    308,   10517.5908,   1522.62158,   1694.71863
    309,   10723.8184,   1522.62158,   1694.71863
    310,   10930.0459,   1522.62158,   1694.71863
    311,   9692.68164,   1522.62158,   1694.71863
    312,   9898.90918,   1522.62158,   1694.71863
    313,   10105.1367,   1522.62158,   1694.71863
    314,   9280.22754,   1522.62158,   1694.71863
    315,   8867.77246,   1522.62158,   1694.71863
    316,   8042.86377,   1522.62158,   1694.71863
    317,   8249.09082,   1522.62158,   1694.71863
    318,   8455.31836,   1522.62158,   1694.71863
    319,   7217.95459,   1522.62158,   1694.71863
    320,   7424.18164,   1522.62158,   1694.71863
    321,   7630.40918,   1522.62158,   1694.71863
    322,   6393.04541,   1522.62158,   1694.71863
    323,   6599.27295,   1522.62158,   1694.71863
    324,       6805.5,   1522.62158,   1694.71863
    325,   5568.13623,   1522.62158,   1694.71863
    326,   5774.36377,   1522.62158,   1694.71863
    327,   5980.59082,   1522.62158,   1694.71863
    328,   4743.22705,   1522.62158,   1694.71863
    329,   4949.45459,   1522.62158,   1694.71863
    330,   5155.68164,   1522.62158,   1694.71863
    331,   3918.31812,   1522.62158,   1694.71863
    332,   4124.54541,   1522.62158,   1694.71863
    333,   4330.77295,   1522.62158,   1694.71863
    334,   3093.40918,   1522.62158,   1694.71863
    335,   3299.63647,   1522.62158,   1694.71863
    336,   3505.86353,   1522.62158,   1694.71863
    337,       2268.5,   1522.62158,   1694.71863
    338,   2474.72729,   1522.62158,   1694.71863
    339,   2680.95459,   1522.62158,   1694.71863
    340,   1443.59094,   1522.62158,   1694.71863
    341,   1649.81824,   1522.62158,   1694.71863
    342,   1856.04541,   1522.62158,   1694.71863
    343,   618.681824,   1522.62158,   1694.71863
    344,   824.909119,   1522.62158,   1694.71863
    345,   1031.13635,   1522.62158,   1694.71863
    346,    206.22728,   1522.62158,   1694.71863
    347,   17941.7734,   611.738403,   1270.08142
    348,   17116.8633,   611.738403,   1270.08142
    349,   17323.0918,   611.738403,   1270.08142
    350,   17529.3184,   611.738403,   1270.08142
    351,   16291.9541,   611.738403,   1270.08142
    352,   16498.1816,   611.738403,   1270.08142
    353,   16704.4082,   611.738403,   1270.08142
    354,   15467.0459,   611.738403,   1270.08142
    355,   15673.2725,   611.738403,   1270.08142
    356,      15879.5,   611.738403,   1270.08142
    357,   14642.1367,   611.738403,   1270.08142
    358,   14848.3633,   611.738403,   1270.08142
    359,   15054.5908,   611.738403,   1270.08142
    360,   13817.2275,   611.738403,   1270.08142
    361,   14023.4541,   611.738403,   1270.08142
    362,   14229.6816,   611.738403,   1270.08142
    363,   12992.3184,   611.738403,   1270.08142
    364,   13198.5459,   611.738403,   1270.08142
    365,   13404.7725,   611.738403,   1270.08142
    366,   12167.4092,   611.738403,   1270.08142
    367,   12373.6367,   611.738403,   1270.08142
    368,   12579.8633,   611.738403,   1270.08142
    369,      11342.5,   611.738403,   1270.08142
    370,   11548.7275,   611.738403,   1270.08142
    371,   11754.9541,   611.738403,   1270.08142
    372,   10517.5908,   611.738403,   1270.08142
    373,   10723.8184,   611.738403,   1270.08142
    374,   10930.0459,   611.738403,   1270.08142
    375,   9692.68164,   611.738403,   1270.08142
    376,   9898.90918,   611.738403,   1270.08142
    377,   10105.1367,   611.738403,   1270.08142
    378,   9280.22754,   611.738403,   1270.08142
    379,   8867.77246,   611.738403,   1270.08142
    380,   8042.86377,   611.738403,   1270.08142
    381,   8249.09082,   611.738403,   1270.08142
    382,   8455.31836,   611.738403,   1270.08142
    383,   7217.95459,   611.738403,   1270.08142
    384,   7424.18164,   611.738403,   1270.08142
    385,   7630.40918,   611.738403,   1270.08142
    386,   6393.04541,   611.738403,   1270.08142
    387,   6599.27295,   611.738403,   1270.08142
    388,       6805.5,   611.738403,   1270.08142
    389,   5568.13623,   611.738403,   1270.08142
    390,   5774.36377,   611.738403,   1270.08142
    391,   5980.59082,   611.738403,   1270.08142
    392,   4743.22705,   611.738403,   1270.08142
    393,   4949.45459,   611.738403,   1270.08142
    394,   5155.68164,   611.738403,   1270.08142
    395,   3918.31812,   611.738403,   1270.08142
    396,   4124.54541,   611.738403,   1270.08142
    397,   4330.77295,   611.738403,   1270.08142
    398,   3093.40918,   611.738403,   1270.08142
    399,   3299.63647,   611.738403,   1270.08142
    400,   3505.86353,   611.738403,   1270.08142
    401,       2268.5,   611.738403,   1270.08142
    402,   2474.72729,   611.738403,   1270.08142
    403,   2680.95459,   611.738403,   1270.08142
    404,   1443.59094,   611.738403,   1270.08142
    405,   1649.81824,   611.738403,   1270.08142
    406,   1856.04541,   611.738403,   1270.08142
    407,   618.681824,   611.738403,   1270.08142
    408,   824.909119,   611.738403,   1270.08142
    409,   1031.13635,   611.738403,   1270.08142
    410,    206.22728,   611.738403,   1270.08142
    411,       18148.,           0.,   214.975006
    412,       18148.,           0.,   429.950012
    413,       18148.,           0.,   644.924988
    414,   17941.7734,  -299.144806,   845.444092
    415,   17116.8633,  -299.144806,   845.444092
    416,   17323.0918,  -299.144806,   845.444092
    417,   17529.3184,  -299.144806,   845.444092
    418,   16291.9541,  -299.144806,   845.444092
    419,   16498.1816,  -299.144806,   845.444092
    420,   16704.4082,  -299.144806,   845.444092
    421,   15467.0459,  -299.144806,   845.444092
    422,   15673.2725,  -299.144806,   845.444092
    423,      15879.5,  -299.144806,   845.444092
    424,   14642.1367,  -299.144806,   845.444092
    425,   14848.3633,  -299.144806,   845.444092
    426,   15054.5908,  -299.144806,   845.444092
    427,   13817.2275,  -299.144806,   845.444092
    428,   14023.4541,  -299.144806,   845.444092
    429,   14229.6816,  -299.144806,   845.444092
    430,   12992.3184,  -299.144806,   845.444092
    431,   13198.5459,  -299.144806,   845.444092
    432,   13404.7725,  -299.144806,   845.444092
    433,   12167.4092,  -299.144806,   845.444092
    434,   12373.6367,  -299.144806,   845.444092
    435,   12579.8633,  -299.144806,   845.444092
    436,      11342.5,  -299.144806,   845.444092
    437,   11548.7275,  -299.144806,   845.444092
    438,   11754.9541,  -299.144806,   845.444092
    439,   10517.5908,  -299.144806,   845.444092
    440,   10723.8184,  -299.144806,   845.444092
    441,   10930.0459,  -299.144806,   845.444092
    442,   9692.68164,  -299.144806,   845.444092
    443,   9898.90918,  -299.144806,   845.444092
    444,   10105.1367,  -299.144806,   845.444092
    445,   9280.22754,  -299.144806,   845.444092
    446,   8867.77246,  -299.144806,   845.444092
    447,   8042.86377,  -299.144806,   845.444092
    448,   8249.09082,  -299.144806,   845.444092
    449,   8455.31836,  -299.144806,   845.444092
    450,   7217.95459,  -299.144806,   845.444092
    451,   7424.18164,  -299.144806,   845.444092
    452,   7630.40918,  -299.144806,   845.444092
    453,   6393.04541,  -299.144806,   845.444092
    454,   6599.27295,  -299.144806,   845.444092
    455,       6805.5,  -299.144806,   845.444092
    456,   5568.13623,  -299.144806,   845.444092
    457,   5774.36377,  -299.144806,   845.444092
    458,   5980.59082,  -299.144806,   845.444092
    459,   4743.22705,  -299.144806,   845.444092
    460,   4949.45459,  -299.144806,   845.444092
    461,   5155.68164,  -299.144806,   845.444092
    462,   3918.31812,  -299.144806,   845.444092
    463,   4124.54541,  -299.144806,   845.444092
    464,   4330.77295,  -299.144806,   845.444092
    465,   3093.40918,  -299.144806,   845.444092
    466,   3299.63647,  -299.144806,   845.444092
    467,   3505.86353,  -299.144806,   845.444092
    468,       2268.5,  -299.144806,   845.444092
    469,   2474.72729,  -299.144806,   845.444092
    470,   2680.95459,  -299.144806,   845.444092
    471,   1443.59094,  -299.144806,   845.444092
    472,   1649.81824,  -299.144806,   845.444092
    473,   1856.04541,  -299.144806,   845.444092
    474,   618.681824,  -299.144806,   845.444092
    475,   824.909119,  -299.144806,   845.444092
    476,   1031.13635,  -299.144806,   845.444092
    477,    206.22728,  -299.144806,   845.444092
    478,       13611.,   2134.36011,   612.161255
    479,       13611.,   2134.36011,    807.55249
    480,       13611.,   2134.36011,   1002.94373
    481,       13611.,   2134.36011,   1198.33496
    482,       13611.,   2134.36011,    1393.7262
    483,       13611.,   2134.36011,   1589.11755
    484,       13611.,   2134.36011,   1784.50879
    485,       13611.,   2134.36011,   208.384995
    486,       13611.,           0.,   214.975006
    487,       13611.,           0.,   429.950012
    488,       13611.,           0.,   644.924988
    489,        9074.,   2134.36011,   612.161255
    490,        9074.,   2134.36011,    807.55249
    491,        9074.,   2134.36011,   1002.94373
    492,        9074.,   2134.36011,   1198.33496
    493,        9074.,   2134.36011,    1393.7262
    494,        9074.,   2134.36011,   1589.11755
    495,        9074.,   2134.36011,   1784.50879
    496,        9074.,   2134.36011,   208.384995
    497,        9074.,           0.,   214.975006
    498,        9074.,           0.,   429.950012
    499,        9074.,           0.,   644.924988
    500,        4537.,   2134.36011,   612.161255
    501,        4537.,   2134.36011,    807.55249
    502,        4537.,   2134.36011,   1002.94373
    503,        4537.,   2134.36011,   1198.33496
    504,        4537.,   2134.36011,    1393.7262
    505,        4537.,   2134.36011,   1589.11755
    506,        4537.,   2134.36011,   1784.50879
    507,        4537.,   2134.36011,   208.384995
    508,        4537.,           0.,   214.975006
    509,        4537.,           0.,   429.950012
    510,        4537.,           0.,   644.924988
    511,           0.,   2134.36011,   612.161255
    512,           0.,   2134.36011,    807.55249
    513,           0.,   2134.36011,   1002.94373
    514,           0.,   2134.36011,   1198.33496
    515,           0.,   2134.36011,    1393.7262
    516,           0.,   2134.36011,   1589.11755
    517,           0.,   2134.36011,   1784.50879
    518,           0.,   2134.36011,   208.384995
    519,           0.,           0.,   214.975006
    520,           0.,           0.,   429.950012
    521,           0.,           0.,   644.924988
    522,       18148.,    194.03273,   819.615479
    523,       18148.,    388.06546,   779.330933
    524,       18148.,   582.098206,   739.046387
    525,       18148.,    776.13092,   698.761841
    526,       18148.,   970.163635,   658.477295
    527,       18148.,   1164.19641,   618.192749
    528,       18148.,   1358.22913,   577.908203
    529,       18148.,   1552.26184,   537.623657
    530,       18148.,   1746.29456,   497.339081
    531,       18148.,   1940.32727,   457.054535
    532,       13611.,    194.03273,   819.615479
    533,       13611.,    388.06546,   779.330933
    534,       13611.,   582.098206,   739.046387
    535,       13611.,    776.13092,   698.761841
    536,       13611.,   970.163635,   658.477295
    537,       13611.,   1164.19641,   618.192749
    538,       13611.,   1358.22913,   577.908203
    539,       13611.,   1552.26184,   537.623657
    540,       13611.,   1746.29456,   497.339081
    541,       13611.,   1940.32727,   457.054535
    542,        9074.,    194.03273,   819.615479
    543,        9074.,    388.06546,   779.330933
    544,        9074.,   582.098206,   739.046387
    545,        9074.,    776.13092,   698.761841
    546,        9074.,   970.163635,   658.477295
    547,        9074.,   1164.19641,   618.192749
    548,        9074.,   1358.22913,   577.908203
    549,        9074.,   1552.26184,   537.623657
    550,        9074.,   1746.29456,   497.339081
    551,        9074.,   1940.32727,   457.054535
    552,        4537.,    194.03273,   819.615479
    553,        4537.,    388.06546,   779.330933
    554,        4537.,   582.098206,   739.046387
    555,        4537.,    776.13092,   698.761841
    556,        4537.,   970.163635,   658.477295
    557,        4537.,   1164.19641,   618.192749
    558,        4537.,   1358.22913,   577.908203
    559,        4537.,   1552.26184,   537.623657
    560,        4537.,   1746.29456,   497.339081
    561,        4537.,   1940.32727,   457.054535
    562,           0.,    194.03273,   819.615479
    563,           0.,    388.06546,   779.330933
    564,           0.,   582.098206,   739.046387
    565,           0.,    776.13092,   698.761841
    566,           0.,   970.163635,   658.477295
    567,           0.,   1164.19641,   618.192749
    568,           0.,   1358.22913,   577.908203
    569,           0.,   1552.26184,   537.623657
    570,           0.,   1746.29456,   497.339081
    571,           0.,   1940.32727,   457.054535
*Element, type=B31
1,   1, 141
2, 141,   2
3,   2, 142
4, 142, 143
5, 143,   3
 6,   4, 144
 7, 144, 145
 8, 145, 146
 9, 146,   1
10,   5, 147
11, 147,   2
12,   6, 148
13, 148, 149
14, 149, 150
15, 150,   4
16,   7, 151
17, 151, 152
18, 152, 153
19, 153,   6
20,   8, 154
21, 154, 155
22, 155, 156
23, 156,   7
24,   9, 157
25, 157, 158
26, 158, 159
27, 159,   8
28,  10, 160
29, 160, 161
30, 161, 162
31, 162,   9
32,  11, 163
33, 163, 164
34, 164, 165
35, 165,  10
36,  12, 166
37, 166, 167
38, 167, 168
39, 168,  11
40,  13, 169
41, 169, 170
42, 170, 171
43, 171,  12
44,  14, 172
45, 172, 173
46, 173, 174
47, 174,  13
48,  15, 175
49, 175,  14
50,  16, 176
51, 176,  15
52,  17, 177
53, 177, 178
54, 178, 179
55, 179,  16
56,  18, 180
57, 180, 181
58, 181, 182
59, 182,  17
60,  19, 183
61, 183, 184
62, 184, 185
63, 185,  18
64,  20, 186
65, 186, 187
66, 187, 188
67, 188,  19
68,  21, 189
69, 189, 190
70, 190, 191
71, 191,  20
72,  22, 192
73, 192, 193
74, 193, 194
75, 194,  21
76,  23, 195
77, 195, 196
78, 196, 197
79, 197,  22
80,  24, 198
81, 198, 199
82, 199, 200
83, 200,  23
84,  25, 201
85, 201, 202
86, 202, 203
87, 203,  24
88,  26, 204
89, 204, 205
90, 205, 206
91, 206,  25
92,  27, 207
93, 207,  26
94,  27, 208
95, 208, 209
96, 209,  28
 97,  29, 210
 98, 210, 211
 99, 211,   5
100,  30, 212
101, 212, 213
102, 213, 214
103, 214, 215
104, 215,  29
105,  31, 216
106, 216, 217
107, 217,  30
108,  32, 218
109, 218,  31
110,  33, 219
111, 219, 220
112, 220,  32
113,   9, 221
114, 221, 222
115, 222,  34
116,  35, 223
117, 223,   9
118,  36, 224
119, 224, 225
120, 225,  35
121,  37, 226
122, 226, 227
123, 227, 228
124, 228, 229
125, 229,  36
126,  38, 230
127, 230, 231
128, 231,  37
129,  39, 232
130, 232,  38
131,  40, 233
132, 233, 234
133, 234,  39
134,  15, 235
135, 235, 236
136, 236,  41
137,  42, 237
138, 237,  15
139,  43, 238
140, 238, 239
141, 239,  42
142,  44, 240
143, 240, 241
144, 241, 242
145, 242, 243
146, 243,  43
147,  45, 244
148, 244, 245
149, 245,  44
150,  46, 246
151, 246,  45
152,  47, 247
153, 247, 248
154, 248,  46
155,  21, 249
156, 249, 250
157, 250,  48
158,  49, 251
159, 251,  21
160,  50, 252
161, 252, 253
162, 253,  49
163,  51, 254
164, 254, 255
165, 255, 256
166, 256, 257
167, 257,  50
168,  52, 258
169, 258, 259
170, 259,  51
171,  53, 260
172, 260,  52
173,  54, 261
174, 261, 262
175, 262,  53
176,  55, 263
177, 263,  27
178,  56, 264
179, 264, 265
180, 265,  55
181,  57, 266
182, 266, 267
183, 267, 268
184, 268, 269
185, 269,  56
186,  58, 270
187, 270, 271
188, 271,  57
189,  59, 272
190, 272,  58
191,  60, 273
192, 273, 274
193, 274,  59
194,  61, 275
195, 275, 276
196, 276, 277
197, 277, 278
198, 278, 279
199, 279, 280
200, 280, 281
201, 281,   5
202,  62, 282
203, 282,  61
204,  63, 283
205, 283,  29
206,  64, 284
207, 284, 285
208, 285, 286
209, 286,  63
210,  65, 287
211, 287, 288
212, 288, 289
213, 289,  64
214,  66, 290
215, 290, 291
216, 291, 292
217, 292,  65
218,  67, 293
219, 293, 294
220, 294, 295
221, 295,  66
222,  36, 296
223, 296, 297
224, 297, 298
225, 298,  67
226,  68, 299
227, 299, 300
228, 300, 301
229, 301,  36
230,  69, 302
231, 302, 303
232, 303, 304
233, 304,  68
234,  70, 305
235, 305, 306
236, 306, 307
237, 307,  69
238,  71, 308
239, 308, 309
240, 309, 310
241, 310,  70
242,  72, 311
243, 311, 312
244, 312, 313
245, 313,  71
246,  43, 314
247, 314,  72
248,  73, 315
249, 315,  43
250,  74, 316
251, 316, 317
252, 317, 318
253, 318,  73
254,  75, 319
255, 319, 320
256, 320, 321
257, 321,  74
258,  76, 322
259, 322, 323
260, 323, 324
261, 324,  75
262,  77, 325
263, 325, 326
264, 326, 327
265, 327,  76
266,  50, 328
267, 328, 329
268, 329, 330
269, 330,  77
270,  78, 331
271, 331, 332
272, 332, 333
273, 333,  50
274,  79, 334
275, 334, 335
276, 335, 336
277, 336,  78
278,  80, 337
279, 337, 338
280, 338, 339
281, 339,  79
282,  81, 340
283, 340, 341
284, 341, 342
285, 342,  80
286,  82, 343
287, 343, 344
288, 344, 345
289, 345,  81
290,  56, 346
291, 346,  82
292,  83, 347
293, 347,  30
294,  84, 348
295, 348, 349
296, 349, 350
297, 350,  83
298,  85, 351
299, 351, 352
300, 352, 353
301, 353,  84
302,  86, 354
303, 354, 355
304, 355, 356
305, 356,  85
306,  87, 357
307, 357, 358
308, 358, 359
309, 359,  86
310,  37, 360
311, 360, 361
312, 361, 362
313, 362,  87
314,  88, 363
315, 363, 364
316, 364, 365
317, 365,  37
318,  89, 366
319, 366, 367
320, 367, 368
321, 368,  88
322,  90, 369
323, 369, 370
324, 370, 371
325, 371,  89
326,  91, 372
327, 372, 373
328, 373, 374
329, 374,  90
330,  92, 375
331, 375, 376
332, 376, 377
333, 377,  91
334,  44, 378
335, 378,  92
336,  93, 379
337, 379,  44
338,  94, 380
339, 380, 381
340, 381, 382
341, 382,  93
342,  95, 383
343, 383, 384
344, 384, 385
345, 385,  94
346,  96, 386
347, 386, 387
348, 387, 388
349, 388,  95
350,  97, 389
351, 389, 390
352, 390, 391
353, 391,  96
354,  51, 392
355, 392, 393
356, 393, 394
357, 394,  97
358,  98, 395
359, 395, 396
360, 396, 397
361, 397,  51
362,  99, 398
363, 398, 399
364, 399, 400
365, 400,  98
366, 100, 401
367, 401, 402
368, 402, 403
369, 403,  99
370, 101, 404
371, 404, 405
372, 405, 406
373, 406, 100
374, 102, 407
375, 407, 408
376, 408, 409
377, 409, 101
378,  57, 410
379, 410, 102
380, 103,  31
381, 104, 411
382, 411, 412
383, 412, 413
384, 413, 103
385, 105, 414
386, 414,  32
387, 106, 415
388, 415, 416
389, 416, 417
390, 417, 105
391, 107, 418
392, 418, 419
393, 419, 420
394, 420, 106
395, 108, 421
396, 421, 422
397, 422, 423
398, 423, 107
399, 109, 424
400, 424, 425
401, 425, 426
402, 426, 108
403,  39, 427
404, 427, 428
405, 428, 429
406, 429, 109
407, 110, 430
408, 430, 431
409, 431, 432
410, 432,  39
411, 111, 433
412, 433, 434
413, 434, 435
414, 435, 110
415, 112, 436
416, 436, 437
417, 437, 438
418, 438, 111
419, 113, 439
420, 439, 440
421, 440, 441
422, 441, 112
423, 114, 442
424, 442, 443
425, 443, 444
426, 444, 113
427,  46, 445
428, 445, 114
429, 115, 446
430, 446,  46
431, 116, 447
432, 447, 448
433, 448, 449
434, 449, 115
435, 117, 450
436, 450, 451
437, 451, 452
438, 452, 116
439, 118, 453
440, 453, 454
441, 454, 455
442, 455, 117
443, 119, 456
444, 456, 457
445, 457, 458
446, 458, 118
447,  53, 459
448, 459, 460
449, 460, 461
450, 461, 119
451, 120, 462
452, 462, 463
453, 463, 464
454, 464,  53
455, 121, 465
456, 465, 466
457, 466, 467
458, 467, 120
459, 122, 468
460, 468, 469
461, 469, 470
462, 470, 121
463, 123, 471
464, 471, 472
465, 472, 473
466, 473, 122
467, 124, 474
468, 474, 475
469, 475, 476
470, 476, 123
471,  59, 477
472, 477, 124
473, 125, 478
474, 478, 479
475, 479, 480
476, 480, 481
477, 481, 482
478, 482, 483
479, 483, 484
480, 484,  35
481, 126, 485
482, 485, 125
483, 127,  38
484, 128, 486
485, 486, 487
486, 487, 488
487, 488, 127
488, 129, 489
489, 489, 490
490, 490, 491
491, 491, 492
492, 492, 493
493, 493, 494
494, 494, 495
495, 495,  42
496, 130, 496
497, 496, 129
498, 131,  45
499, 132, 497
500, 497, 498
501, 498, 499
502, 499, 131
503, 133, 500
504, 500, 501
505, 501, 502
506, 502, 503
507, 503, 504
508, 504, 505
509, 505, 506
510, 506,  49
511, 134, 507
512, 507, 133
513, 135,  52
514, 136, 508
515, 508, 509
516, 509, 510
517, 510, 135
518, 137, 511
519, 511, 512
520, 512, 513
521, 513, 514
522, 514, 515
523, 515, 516
524, 516, 517
525, 517,  55
526, 138, 518
527, 518, 137
528, 139,  58
529, 140, 519
530, 519, 520
531, 520, 521
532, 521, 139
533, 103, 522
534, 522, 523
535, 523, 524
536, 524, 525
537, 525, 526
538, 526, 527
539, 527, 528
540, 528, 529
541, 529, 530
542, 530, 531
543, 531,  61
544, 127, 532
545, 532, 533
546, 533, 534
547, 534, 535
548, 535, 536
549, 536, 537
550, 537, 538
551, 538, 539
552, 539, 540
553, 540, 541
554, 541, 125
555, 131, 542
556, 542, 543
557, 543, 544
558, 544, 545
559, 545, 546
560, 546, 547
561, 547, 548
562, 548, 549
563, 549, 550
564, 550, 551
565, 551, 129
566, 135, 552
567, 552, 553
568, 553, 554
569, 554, 555
570, 555, 556
571, 556, 557
572, 557, 558
573, 558, 559
574, 559, 560
575, 560, 561
576, 561, 133
577, 139, 562
578, 562, 563
579, 563, 564
580, 564, 565
581, 565, 566
582, 566, 567
583, 567, 568
584, 568, 569
585, 569, 570
586, 570, 571
587, 571, 137
*Nset, nset=P2
   2,   3,   5,   9,  15,  21,  27,  28,  29,  30,  31,  32,  33,  34,  35,  36
  37,  38,  39,  40,  41,  42,  43,  44,  45,  46,  47,  48,  49,  50,  51,  52
  53,  54,  55,  56,  57,  58,  59,  60, 142, 143, 147, 208, 209, 210, 211, 212
 213, 214, 215, 216, 217, 218, 219, 220, 221, 222, 223, 224, 225, 226, 227, 228
 229, 230, 231, 232, 233, 234, 235, 236, 237, 238, 239, 240, 241, 242, 243, 244
 245, 246, 247, 248, 249, 250, 251, 252, 253, 254, 255, 256, 257, 258, 259, 260
 261, 262, 263, 264, 265, 266, 267, 268, 269, 270, 271, 272, 273, 274
*Elset, elset=P2
   3,   4,   5,  10,  11,  94,  95,  96,  97,  98,  99, 100, 101, 102, 103, 104
 105, 106, 107, 108, 109, 110, 111, 112, 113, 114, 115, 116, 117, 118, 119, 120
 121, 122, 123, 124, 125, 126, 127, 128, 129, 130, 131, 132, 133, 134, 135, 136
 137, 138, 139, 140, 141, 142, 143, 144, 145, 146, 147, 148, 149, 150, 151, 152
 153, 154, 155, 156, 157, 158, 159, 160, 161, 162, 163, 164, 165, 166, 167, 168
 169, 170, 171, 172, 173, 174, 175, 176, 177, 178, 179, 180, 181, 182, 183, 184
 185, 186, 187, 188, 189, 190, 191, 192, 193
*Nset, nset=P3
  31,  38,  45,  52,  58, 103, 104, 127, 128, 131, 132, 135, 136, 139, 140, 411
 412, 413, 486, 487, 488, 497, 498, 499, 508, 509, 510, 519, 520, 521
*Elset, elset=P3
 380, 381, 382, 383, 384, 483, 484, 485, 486, 487, 498, 499, 500, 501, 502, 513
 514, 515, 516, 517, 528, 529, 530, 531, 532
*Nset, nset=P4
   5,  35,  42,  49,  55,  61,  62, 125, 126, 129, 130, 133, 134, 137, 138, 275
 276, 277, 278, 279, 280, 281, 282, 478, 479, 480, 481, 482, 483, 484, 485, 489
 490, 491, 492, 493, 494, 495, 496, 500, 501, 502, 503, 504, 505, 506, 507, 511
 512, 513, 514, 515, 516, 517, 518
*Elset, elset=P4
 194, 195, 196, 197, 198, 199, 200, 201, 202, 203, 473, 474, 475, 476, 477, 478
 479, 480, 481, 482, 488, 489, 490, 491, 492, 493, 494, 495, 496, 497, 503, 504
 505, 506, 507, 508, 509, 510, 511, 512, 518, 519, 520, 521, 522, 523, 524, 525
 526, 527
*Nset, nset=P5
   1,   2,   4,   6,   7,   8,   9,  10,  11,  12,  13,  14,  15,  16,  17,  18
  19,  20,  21,  22,  23,  24,  25,  26,  27,  29,  30,  32,  36,  37,  39,  43
  44,  46,  50,  51,  53,  56,  57,  59,  63,  64,  65,  66,  67,  68,  69,  70
  71,  72,  73,  74,  75,  76,  77,  78,  79,  80,  81,  82,  83,  84,  85,  86
  87,  88,  89,  90,  91,  92,  93,  94,  95,  96,  97,  98,  99, 100, 101, 102
 105, 106, 107, 108, 109, 110, 111, 112, 113, 114, 115, 116, 117, 118, 119, 120
 121, 122, 123, 124, 141, 144, 145, 146, 148, 149, 150, 151, 152, 153, 154, 155
 156, 157, 158, 159, 160, 161, 162, 163, 164, 165, 166, 167, 168, 169, 170, 171
 172, 173, 174, 175, 176, 177, 178, 179, 180, 181, 182, 183, 184, 185, 186, 187
 188, 189, 190, 191, 192, 193, 194, 195, 196, 197, 198, 199, 200, 201, 202, 203
 204, 205, 206, 207, 283, 284, 285, 286, 287, 288, 289, 290, 291, 292, 293, 294
 295, 296, 297, 298, 299, 300, 301, 302, 303, 304, 305, 306, 307, 308, 309, 310
 311, 312, 313, 314, 315, 316, 317, 318, 319, 320, 321, 322, 323, 324, 325, 326
 327, 328, 329, 330, 331, 332, 333, 334, 335, 336, 337, 338, 339, 340, 341, 342
 343, 344, 345, 346, 347, 348, 349, 350, 351, 352, 353, 354, 355, 356, 357, 358
 359, 360, 361, 362, 363, 364, 365, 366, 367, 368, 369, 370, 371, 372, 373, 374
 375, 376, 377, 378, 379, 380, 381, 382, 383, 384, 385, 386, 387, 388, 389, 390
 391, 392, 393, 394, 395, 396, 397, 398, 399, 400, 401, 402, 403, 404, 405, 406
 407, 408, 409, 410, 414, 415, 416, 417, 418, 419, 420, 421, 422, 423, 424, 425
 426, 427, 428, 429, 430, 431, 432, 433, 434, 435, 436, 437, 438, 439, 440, 441
 442, 443, 444, 445, 446, 447, 448, 449, 450, 451, 452, 453, 454, 455, 456, 457
 458, 459, 460, 461, 462, 463, 464, 465, 466, 467, 468, 469, 470, 471, 472, 473
 474, 475, 476, 477
*Elset, elset=P5
   1,   2,   6,   7,   8,   9,  12,  13,  14,  15,  16,  17,  18,  19,  20,  21
  22,  23,  24,  25,  26,  27,  28,  29,  30,  31,  32,  33,  34,  35,  36,  37
  38,  39,  40,  41,  42,  43,  44,  45,  46,  47,  48,  49,  50,  51,  52,  53
  54,  55,  56,  57,  58,  59,  60,  61,  62,  63,  64,  65,  66,  67,  68,  69
  70,  71,  72,  73,  74,  75,  76,  77,  78,  79,  80,  81,  82,  83,  84,  85
  86,  87,  88,  89,  90,  91,  92,  93, 204, 205, 206, 207, 208, 209, 210, 211
 212, 213, 214, 215, 216, 217, 218, 219, 220, 221, 222, 223, 224, 225, 226, 227
 228, 229, 230, 231, 232, 233, 234, 235, 236, 237, 238, 239, 240, 241, 242, 243
 244, 245, 246, 247, 248, 249, 250, 251, 252, 253, 254, 255, 256, 257, 258, 259
 260, 261, 262, 263, 264, 265, 266, 267, 268, 269, 270, 271, 272, 273, 274, 275
 276, 277, 278, 279, 280, 281, 282, 283, 284, 285, 286, 287, 288, 289, 290, 291
 292, 293, 294, 295, 296, 297, 298, 299, 300, 301, 302, 303, 304, 305, 306, 307
 308, 309, 310, 311, 312, 313, 314, 315, 316, 317, 318, 319, 320, 321, 322, 323
 324, 325, 326, 327, 328, 329, 330, 331, 332, 333, 334, 335, 336, 337, 338, 339
 340, 341, 342, 343, 344, 345, 346, 347, 348, 349, 350, 351, 352, 353, 354, 355
 356, 357, 358, 359, 360, 361, 362, 363, 364, 365, 366, 367, 368, 369, 370, 371
 372, 373, 374, 375, 376, 377, 378, 379, 385, 386, 387, 388, 389, 390, 391, 392
 393, 394, 395, 396, 397, 398, 399, 400, 401, 402, 403, 404, 405, 406, 407, 408
 409, 410, 411, 412, 413, 414, 415, 416, 417, 418, 419, 420, 421, 422, 423, 424
 425, 426, 427, 428, 429, 430, 431, 432, 433, 434, 435, 436, 437, 438, 439, 440
 441, 442, 443, 444, 445, 446, 447, 448, 449, 450, 451, 452, 453, 454, 455, 456
 457, 458, 459, 460, 461, 462, 463, 464, 465, 466, 467, 468, 469, 470, 471, 472
*Nset, nset=P6
  61, 103, 125, 127, 129, 131, 133, 135, 137, 139, 522, 523, 524, 525, 526, 527
 528, 529, 530, 531, 532, 533, 534, 535, 536, 537, 538, 539, 540, 541, 542, 543
 544, 545, 546, 547, 548, 549, 550, 551, 552, 553, 554, 555, 556, 557, 558, 559
 560, 561, 562, 563, 564, 565, 566, 567, 568, 569, 570, 571
*Elset, elset=P6, generate
 533,  587,    1
** Section: P5  Profile: C100
*Beam Section, elset=P5, material=S235JR, poisson = 0.3, temperature=GRADIENTS, section=ARBITRARY
5, 29.1607, 30., 29.1607, 48., 4.
-16.8393, 48., 4.
-16.8393, -48., 4.
29.1607, -48., 4.
29.1607, -30., 4.
0.,0.906351,0.422525
** Section: P2  Profile: C125
*Beam Section, elset=P2, material=S355JR, poisson = 0.3, temperature=GRADIENTS, section=ARBITRARY
5, 36.9745, 37.5, 36.9745, 60.5, 4.
-21.5255, 60.5, 4.
-21.5255, -60.5, 4.
36.9745, -60.5, 4.
36.9745, -37.5, 4.
1.,0.,0.
** Section: P4  Profile: C125
*Beam Section, elset=P4, material=S235JR, poisson = 0.3, temperature=GRADIENTS, section=ARBITRARY
5, 36.9745, 37.5, 36.9745, 60.5, 4.
-21.5255, 60.5, 4.
-21.5255, -60.5, 4.
36.9745, -60.5, 4.
36.9745, -37.5, 4.
1.,0.,0.
** Section: P3  Profile: C125
*Beam Section, elset=P3, material=S235JR, poisson = 0.3, temperature=GRADIENTS, section=ARBITRARY
5, 36.9745, 37.5, 36.9745, 60.5, 4.
-21.5255, 60.5, 4.
-21.5255, -60.5, 4.
36.9745, -60.5, 4.
36.9745, -37.5, 4.
1.,0.,0.
** Section: P6  Profile: C50
*Beam Section, elset=P6, material=S235JR, poisson = 0.3, temperature=GRADIENTS, section=ARBITRARY
3, 16.875, 22.5, -5.625, 22.5, 5.
-5.625, -22.5, 5.
16.875, -22.5, 5.
1.,0.,0.
*End Part
**  
**
** ASSEMBLY
**
*Assembly, name=Assembly
**  
*Instance, name=FRAME, part=SteelFrame
*End Instance
**  
*Nset, nset=BASES, instance=FRAME
  62, 104, 126, 128, 130, 132, 134, 136, 138, 140
*Nset, nset=CONTACT_ROW_1, instance=FRAME
  39,  53, 105, 106, 107, 108, 109, 110, 111, 112, 113, 114, 115, 116, 117, 118
 119, 120, 121, 122, 123, 124
*Nset, nset=CONTACT_ROW_2, instance=FRAME
  37,  51,  83,  84,  85,  86,  87,  88,  89,  90,  91,  92,  93,  94,  95,  96
  97,  98,  99, 100, 101, 102
*Nset, nset=CONTACT_ROW_3, instance=FRAME
 36, 50, 63, 64, 65, 66, 67, 68, 69, 70, 71, 72, 73, 74, 75, 76
 77, 78, 79, 80, 81, 82
*Nset, nset=CONTACT_ROW_4, instance=FRAME
  1,  4,  6,  7,  8,  9, 10, 11, 12, 13, 14, 16, 17, 18, 19, 20
 21, 22, 23, 24, 25, 26
*End Assembly
** 
** MATERIALS
** 
*Material, name=S235JR
*Density
 7.85e-09,
*Elastic
210000., 0.3
*Material, name=S355JR
*Density
 7.85e-09,
*Elastic
210000., 0.3
** 
** BOUNDARY CONDITIONS
** 
** Name: GroundFixity Type: Symmetry/Antisymmetry/Encastre
*Boundary
BASES, ENCASTRE
** ----------------------------------------------------------------
** 
** STEP: D
** 
*Step, name=D, nlgeom=NO
*Static
1., 1., 1e-05, 1.
** 
** LOADS
** 
** Name: D_Contact_1   Type: Concentrated force
*Cload, op=NEW
CONTACT_ROW_1, 2, 0.
CONTACT_ROW_1, 3, -126.993
** Name: D_Contact_2   Type: Concentrated force
*Cload, op=NEW
CONTACT_ROW_2, 2, 0.
CONTACT_ROW_2, 3, -126.993
** Name: D_Contact_3   Type: Concentrated force
*Cload, op=NEW
CONTACT_ROW_3, 2, 0.
CONTACT_ROW_3, 3, -126.993
** Name: D_Contact_4   Type: Concentrated force
*Cload, op=NEW
CONTACT_ROW_4, 2, 0.
CONTACT_ROW_4, 3, -126.993
** Name: D_SteelGravity   Type: Gravity
*Dload, op=NEW
, GRAV, 9810., 0., 0., -1.
** 
** OUTPUT REQUESTS
** 
*Restart, write, frequency=0
** 
** FIELD OUTPUT: Nodal
** 
*Output, field, frequency=99999
*Node Output
RF, RM, U
** 
** FIELD OUTPUT: Section_P2
** 
*Element Output, elset=FRAME.P2, directions=YES
1, 2, 3, 4, 5, 6, 7, 8, 9, 10, 11
S, SF
** 
** FIELD OUTPUT: Section_P3
** 
*Element Output, elset=FRAME.P3, directions=YES
1, 2, 3, 4, 5, 6, 7, 8, 9, 10, 11
S, SF
** 
** FIELD OUTPUT: Section_P4
** 
*Element Output, elset=FRAME.P4, directions=YES
1, 2, 3, 4, 5, 6, 7, 8, 9, 10, 11
S, SF
** 
** FIELD OUTPUT: Section_P5
** 
*Element Output, elset=FRAME.P5, directions=YES
1, 2, 3, 4, 5, 6, 7, 8, 9, 10, 11
S, SF
** 
** FIELD OUTPUT: Section_P6
** 
*Element Output, elset=FRAME.P6, directions=YES
1, 2, 3, 4, 5, 6, 7
S, SF
** 
** HISTORY OUTPUT: Energy
** 
*Output, history
*Energy Output
ALLSE, ALLWK
*End Step
** ----------------------------------------------------------------
** 
** STEP: S
** 
*Step, name=S, nlgeom=NO
*Static
1., 1., 1e-05, 1.
** 
** LOADS
** 
** Name: D_Contact_1   Type: Concentrated force
*Cload, op=NEW
** Name: D_Contact_2   Type: Concentrated force
*Cload, op=NEW
** Name: D_Contact_3   Type: Concentrated force
*Cload, op=NEW
** Name: D_Contact_4   Type: Concentrated force
*Cload, op=NEW
** Name: D_SteelGravity   Type: Gravity
*Dload, op=NEW
** Name: S_Contact_1   Type: Concentrated force
*Cload, op=NEW
CONTACT_ROW_1, 2, 0.
CONTACT_ROW_1, 3, -733.2
** Name: S_Contact_2   Type: Concentrated force
*Cload, op=NEW
CONTACT_ROW_2, 2, 0.
CONTACT_ROW_2, 3, -733.2
** Name: S_Contact_3   Type: Concentrated force
*Cload, op=NEW
CONTACT_ROW_3, 2, 0.
CONTACT_ROW_3, 3, -733.2
** Name: S_Contact_4   Type: Concentrated force
*Cload, op=NEW
CONTACT_ROW_4, 2, 0.
CONTACT_ROW_4, 3, -733.2
** 
** OUTPUT REQUESTS
** 
*Restart, write, frequency=0
** 
** FIELD OUTPUT: Nodal
** 
*Output, field, frequency=99999
*Node Output
RF, RM, U
** 
** FIELD OUTPUT: Section_P2
** 
*Element Output, elset=FRAME.P2, directions=YES
1, 2, 3, 4, 5, 6, 7, 8, 9, 10, 11
S, SF
** 
** FIELD OUTPUT: Section_P3
** 
*Element Output, elset=FRAME.P3, directions=YES
1, 2, 3, 4, 5, 6, 7, 8, 9, 10, 11
S, SF
** 
** FIELD OUTPUT: Section_P4
** 
*Element Output, elset=FRAME.P4, directions=YES
1, 2, 3, 4, 5, 6, 7, 8, 9, 10, 11
S, SF
** 
** FIELD OUTPUT: Section_P5
** 
*Element Output, elset=FRAME.P5, directions=YES
1, 2, 3, 4, 5, 6, 7, 8, 9, 10, 11
S, SF
** 
** FIELD OUTPUT: Section_P6
** 
*Element Output, elset=FRAME.P6, directions=YES
1, 2, 3, 4, 5, 6, 7
S, SF
** 
** HISTORY OUTPUT: Energy
** 
*Output, history
*Energy Output
ALLSE, ALLWK
*End Step
** ----------------------------------------------------------------
** 
** STEP: W
** 
*Step, name=W, nlgeom=NO
*Static
1., 1., 1e-05, 1.
** 
** LOADS
** 
** Name: S_Contact_1   Type: Concentrated force
*Cload, op=NEW
** Name: S_Contact_2   Type: Concentrated force
*Cload, op=NEW
** Name: S_Contact_3   Type: Concentrated force
*Cload, op=NEW
** Name: S_Contact_4   Type: Concentrated force
*Cload, op=NEW
** Name: W_Contact_1   Type: Concentrated force
*Cload, op=NEW
CONTACT_ROW_1, 2, 35.556
CONTACT_ROW_1, 3, -76.2707
** Name: W_Contact_2   Type: Concentrated force
*Cload, op=NEW
CONTACT_ROW_2, 2, 35.556
CONTACT_ROW_2, 3, -76.2707
** Name: W_Contact_3   Type: Concentrated force
*Cload, op=NEW
CONTACT_ROW_3, 2, 35.556
CONTACT_ROW_3, 3, -76.2707
** Name: W_Contact_4   Type: Concentrated force
*Cload, op=NEW
CONTACT_ROW_4, 2, 35.556
CONTACT_ROW_4, 3, -76.2707
** 
** OUTPUT REQUESTS
** 
*Restart, write, frequency=0
** 
** FIELD OUTPUT: Nodal
** 
*Output, field, frequency=99999
*Node Output
RF, RM, U
** 
** FIELD OUTPUT: Section_P2
** 
*Element Output, elset=FRAME.P2, directions=YES
1, 2, 3, 4, 5, 6, 7, 8, 9, 10, 11
S, SF
** 
** FIELD OUTPUT: Section_P3
** 
*Element Output, elset=FRAME.P3, directions=YES
1, 2, 3, 4, 5, 6, 7, 8, 9, 10, 11
S, SF
** 
** FIELD OUTPUT: Section_P4
** 
*Element Output, elset=FRAME.P4, directions=YES
1, 2, 3, 4, 5, 6, 7, 8, 9, 10, 11
S, SF
** 
** FIELD OUTPUT: Section_P5
** 
*Element Output, elset=FRAME.P5, directions=YES
1, 2, 3, 4, 5, 6, 7, 8, 9, 10, 11
S, SF
** 
** FIELD OUTPUT: Section_P6
** 
*Element Output, elset=FRAME.P6, directions=YES
1, 2, 3, 4, 5, 6, 7
S, SF
** 
** HISTORY OUTPUT: Energy
** 
*Output, history
*Energy Output
ALLSE, ALLWK
*End Step
** ----------------------------------------------------------------
** 
** STEP: D_07S
** 
*Step, name=D_07S, nlgeom=NO
*Static
1., 1., 1e-05, 1.
** 
** LOADS
** 
** Name: D_07S_Contact_1   Type: Concentrated force
*Cload, op=NEW
CONTACT_ROW_1, 2, 0.
CONTACT_ROW_1, 3, -640.233
** Name: D_07S_Contact_2   Type: Concentrated force
*Cload, op=NEW
CONTACT_ROW_2, 2, 0.
CONTACT_ROW_2, 3, -640.233
** Name: D_07S_Contact_3   Type: Concentrated force
*Cload, op=NEW
CONTACT_ROW_3, 2, 0.
CONTACT_ROW_3, 3, -640.233
** Name: D_07S_Contact_4   Type: Concentrated force
*Cload, op=NEW
CONTACT_ROW_4, 2, 0.
CONTACT_ROW_4, 3, -640.233
** Name: D_07S_SteelGravity   Type: Gravity
*Dload, op=NEW
, GRAV, 9810., 0., 0., -1.
** Name: W_Contact_1   Type: Concentrated force
*Cload, op=NEW
** Name: W_Contact_2   Type: Concentrated force
*Cload, op=NEW
** Name: W_Contact_3   Type: Concentrated force
*Cload, op=NEW
** Name: W_Contact_4   Type: Concentrated force
*Cload, op=NEW
** 
** OUTPUT REQUESTS
** 
*Restart, write, frequency=0
** 
** FIELD OUTPUT: Nodal
** 
*Output, field, frequency=99999
*Node Output
RF, RM, U
** 
** FIELD OUTPUT: Section_P2
** 
*Element Output, elset=FRAME.P2, directions=YES
1, 2, 3, 4, 5, 6, 7, 8, 9, 10, 11
S, SF
** 
** FIELD OUTPUT: Section_P3
** 
*Element Output, elset=FRAME.P3, directions=YES
1, 2, 3, 4, 5, 6, 7, 8, 9, 10, 11
S, SF
** 
** FIELD OUTPUT: Section_P4
** 
*Element Output, elset=FRAME.P4, directions=YES
1, 2, 3, 4, 5, 6, 7, 8, 9, 10, 11
S, SF
** 
** FIELD OUTPUT: Section_P5
** 
*Element Output, elset=FRAME.P5, directions=YES
1, 2, 3, 4, 5, 6, 7, 8, 9, 10, 11
S, SF
** 
** FIELD OUTPUT: Section_P6
** 
*Element Output, elset=FRAME.P6, directions=YES
1, 2, 3, 4, 5, 6, 7
S, SF
** 
** HISTORY OUTPUT: Energy
** 
*Output, history
*Energy Output
ALLSE, ALLWK
*End Step
** ----------------------------------------------------------------
** 
** STEP: D_S
** 
*Step, name=D_S, nlgeom=NO
*Static
1., 1., 1e-05, 1.
** 
** LOADS
** 
** Name: D_07S_Contact_1   Type: Concentrated force
*Cload, op=NEW
** Name: D_07S_Contact_2   Type: Concentrated force
*Cload, op=NEW
** Name: D_07S_Contact_3   Type: Concentrated force
*Cload, op=NEW
** Name: D_07S_Contact_4   Type: Concentrated force
*Cload, op=NEW
** Name: D_07S_SteelGravity   Type: Gravity
*Dload, op=NEW
** Name: D_S_Contact_1   Type: Concentrated force
*Cload, op=NEW
CONTACT_ROW_1, 2, 0.
CONTACT_ROW_1, 3, -860.193
** Name: D_S_Contact_2   Type: Concentrated force
*Cload, op=NEW
CONTACT_ROW_2, 2, 0.
CONTACT_ROW_2, 3, -860.193
** Name: D_S_Contact_3   Type: Concentrated force
*Cload, op=NEW
CONTACT_ROW_3, 2, 0.
CONTACT_ROW_3, 3, -860.193
** Name: D_S_Contact_4   Type: Concentrated force
*Cload, op=NEW
CONTACT_ROW_4, 2, 0.
CONTACT_ROW_4, 3, -860.193
** Name: D_S_SteelGravity   Type: Gravity
*Dload, op=NEW
, GRAV, 9810., 0., 0., -1.
** 
** OUTPUT REQUESTS
** 
*Restart, write, frequency=0
** 
** FIELD OUTPUT: Nodal
** 
*Output, field, frequency=99999
*Node Output
RF, RM, U
** 
** FIELD OUTPUT: Section_P2
** 
*Element Output, elset=FRAME.P2, directions=YES
1, 2, 3, 4, 5, 6, 7, 8, 9, 10, 11
S, SF
** 
** FIELD OUTPUT: Section_P3
** 
*Element Output, elset=FRAME.P3, directions=YES
1, 2, 3, 4, 5, 6, 7, 8, 9, 10, 11
S, SF
** 
** FIELD OUTPUT: Section_P4
** 
*Element Output, elset=FRAME.P4, directions=YES
1, 2, 3, 4, 5, 6, 7, 8, 9, 10, 11
S, SF
** 
** FIELD OUTPUT: Section_P5
** 
*Element Output, elset=FRAME.P5, directions=YES
1, 2, 3, 4, 5, 6, 7, 8, 9, 10, 11
S, SF
** 
** FIELD OUTPUT: Section_P6
** 
*Element Output, elset=FRAME.P6, directions=YES
1, 2, 3, 4, 5, 6, 7
S, SF
** 
** HISTORY OUTPUT: Energy
** 
*Output, history
*Energy Output
ALLSE, ALLWK
*End Step
** ----------------------------------------------------------------
** 
** STEP: D_S_W
** 
*Step, name=D_S_W, nlgeom=NO
*Static
1., 1., 1e-05, 1.
** 
** LOADS
** 
** Name: D_S_Contact_1   Type: Concentrated force
*Cload, op=NEW
** Name: D_S_Contact_2   Type: Concentrated force
*Cload, op=NEW
** Name: D_S_Contact_3   Type: Concentrated force
*Cload, op=NEW
** Name: D_S_Contact_4   Type: Concentrated force
*Cload, op=NEW
** Name: D_S_SteelGravity   Type: Gravity
*Dload, op=NEW
** Name: D_S_W_Contact_1   Type: Concentrated force
*Cload, op=NEW
CONTACT_ROW_1, 2, 35.556
CONTACT_ROW_1, 3, -936.463
** Name: D_S_W_Contact_2   Type: Concentrated force
*Cload, op=NEW
CONTACT_ROW_2, 2, 35.556
CONTACT_ROW_2, 3, -936.463
** Name: D_S_W_Contact_3   Type: Concentrated force
*Cload, op=NEW
CONTACT_ROW_3, 2, 35.556
CONTACT_ROW_3, 3, -936.463
** Name: D_S_W_Contact_4   Type: Concentrated force
*Cload, op=NEW
CONTACT_ROW_4, 2, 35.556
CONTACT_ROW_4, 3, -936.463
** Name: D_S_W_SteelGravity   Type: Gravity
*Dload, op=NEW
, GRAV, 9810., 0., 0., -1.
** 
** OUTPUT REQUESTS
** 
*Restart, write, frequency=0
** 
** FIELD OUTPUT: Nodal
** 
*Output, field, frequency=99999
*Node Output
RF, RM, U
** 
** FIELD OUTPUT: Section_P2
** 
*Element Output, elset=FRAME.P2, directions=YES
1, 2, 3, 4, 5, 6, 7, 8, 9, 10, 11
S, SF
** 
** FIELD OUTPUT: Section_P3
** 
*Element Output, elset=FRAME.P3, directions=YES
1, 2, 3, 4, 5, 6, 7, 8, 9, 10, 11
S, SF
** 
** FIELD OUTPUT: Section_P4
** 
*Element Output, elset=FRAME.P4, directions=YES
1, 2, 3, 4, 5, 6, 7, 8, 9, 10, 11
S, SF
** 
** FIELD OUTPUT: Section_P5
** 
*Element Output, elset=FRAME.P5, directions=YES
1, 2, 3, 4, 5, 6, 7, 8, 9, 10, 11
S, SF
** 
** FIELD OUTPUT: Section_P6
** 
*Element Output, elset=FRAME.P6, directions=YES
1, 2, 3, 4, 5, 6, 7
S, SF
** 
** HISTORY OUTPUT: Energy
** 
*Output, history
*Energy Output
ALLSE, ALLWK
*End Step
** ----------------------------------------------------------------
** 
** STEP: D_S_mW
** 
*Step, name=D_S_mW, nlgeom=NO
*Static
1., 1., 1e-05, 1.
** 
** LOADS
** 
** Name: D_S_W_Contact_1   Type: Concentrated force
*Cload, op=NEW
** Name: D_S_W_Contact_2   Type: Concentrated force
*Cload, op=NEW
** Name: D_S_W_Contact_3   Type: Concentrated force
*Cload, op=NEW
** Name: D_S_W_Contact_4   Type: Concentrated force
*Cload, op=NEW
** Name: D_S_W_SteelGravity   Type: Gravity
*Dload, op=NEW
** Name: D_S_mW_Contact_1   Type: Concentrated force
*Cload, op=NEW
CONTACT_ROW_1, 2, -35.556
CONTACT_ROW_1, 3, -783.922
** Name: D_S_mW_Contact_2   Type: Concentrated force
*Cload, op=NEW
CONTACT_ROW_2, 2, -35.556
CONTACT_ROW_2, 3, -783.922
** Name: D_S_mW_Contact_3   Type: Concentrated force
*Cload, op=NEW
CONTACT_ROW_3, 2, -35.556
CONTACT_ROW_3, 3, -783.922
** Name: D_S_mW_Contact_4   Type: Concentrated force
*Cload, op=NEW
CONTACT_ROW_4, 2, -35.556
CONTACT_ROW_4, 3, -783.922
** Name: D_S_mW_SteelGravity   Type: Gravity
*Dload, op=NEW
, GRAV, 9810., 0., 0., -1.
** 
** OUTPUT REQUESTS
** 
*Restart, write, frequency=0
** 
** FIELD OUTPUT: Nodal
** 
*Output, field, frequency=99999
*Node Output
RF, RM, U
** 
** FIELD OUTPUT: Section_P2
** 
*Element Output, elset=FRAME.P2, directions=YES
1, 2, 3, 4, 5, 6, 7, 8, 9, 10, 11
S, SF
** 
** FIELD OUTPUT: Section_P3
** 
*Element Output, elset=FRAME.P3, directions=YES
1, 2, 3, 4, 5, 6, 7, 8, 9, 10, 11
S, SF
** 
** FIELD OUTPUT: Section_P4
** 
*Element Output, elset=FRAME.P4, directions=YES
1, 2, 3, 4, 5, 6, 7, 8, 9, 10, 11
S, SF
** 
** FIELD OUTPUT: Section_P5
** 
*Element Output, elset=FRAME.P5, directions=YES
1, 2, 3, 4, 5, 6, 7, 8, 9, 10, 11
S, SF
** 
** FIELD OUTPUT: Section_P6
** 
*Element Output, elset=FRAME.P6, directions=YES
1, 2, 3, 4, 5, 6, 7
S, SF
** 
** HISTORY OUTPUT: Energy
** 
*Output, history
*Energy Output
ALLSE, ALLWK
*End Step
** ----------------------------------------------------------------
** 
** STEP: C09D_W
** 
*Step, name=C09D_W, nlgeom=NO
*Static
1., 1., 1e-05, 1.
** 
** LOADS
** 
** Name: C09D_W_Contact_1   Type: Concentrated force
*Cload, op=NEW
CONTACT_ROW_1, 2, 35.556
CONTACT_ROW_1, 3, -190.564
** Name: C09D_W_Contact_2   Type: Concentrated force
*Cload, op=NEW
CONTACT_ROW_2, 2, 35.556
CONTACT_ROW_2, 3, -190.564
** Name: C09D_W_Contact_3   Type: Concentrated force
*Cload, op=NEW
CONTACT_ROW_3, 2, 35.556
CONTACT_ROW_3, 3, -190.564
** Name: C09D_W_Contact_4   Type: Concentrated force
*Cload, op=NEW
CONTACT_ROW_4, 2, 35.556
CONTACT_ROW_4, 3, -190.564
** Name: C09D_W_SteelGravity   Type: Gravity
*Dload, op=NEW
, GRAV, 8829., 0., 0., -1.
** Name: D_S_mW_Contact_1   Type: Concentrated force
*Cload, op=NEW
** Name: D_S_mW_Contact_2   Type: Concentrated force
*Cload, op=NEW
** Name: D_S_mW_Contact_3   Type: Concentrated force
*Cload, op=NEW
** Name: D_S_mW_Contact_4   Type: Concentrated force
*Cload, op=NEW
** Name: D_S_mW_SteelGravity   Type: Gravity
*Dload, op=NEW
** 
** OUTPUT REQUESTS
** 
*Restart, write, frequency=0
** 
** FIELD OUTPUT: Nodal
** 
*Output, field, frequency=99999
*Node Output
RF, RM, U
** 
** FIELD OUTPUT: Section_P2
** 
*Element Output, elset=FRAME.P2, directions=YES
1, 2, 3, 4, 5, 6, 7, 8, 9, 10, 11
S, SF
** 
** FIELD OUTPUT: Section_P3
** 
*Element Output, elset=FRAME.P3, directions=YES
1, 2, 3, 4, 5, 6, 7, 8, 9, 10, 11
S, SF
** 
** FIELD OUTPUT: Section_P4
** 
*Element Output, elset=FRAME.P4, directions=YES
1, 2, 3, 4, 5, 6, 7, 8, 9, 10, 11
S, SF
** 
** FIELD OUTPUT: Section_P5
** 
*Element Output, elset=FRAME.P5, directions=YES
1, 2, 3, 4, 5, 6, 7, 8, 9, 10, 11
S, SF
** 
** FIELD OUTPUT: Section_P6
** 
*Element Output, elset=FRAME.P6, directions=YES
1, 2, 3, 4, 5, 6, 7
S, SF
** 
** HISTORY OUTPUT: Energy
** 
*Output, history
*Energy Output
ALLSE, ALLWK
*End Step
** ----------------------------------------------------------------
** 
** STEP: C09D_mW
** 
*Step, name=C09D_mW, nlgeom=NO
*Static
1., 1., 1e-05, 1.
** 
** LOADS
** 
** Name: C09D_W_Contact_1   Type: Concentrated force
*Cload, op=NEW
** Name: C09D_W_Contact_2   Type: Concentrated force
*Cload, op=NEW
** Name: C09D_W_Contact_3   Type: Concentrated force
*Cload, op=NEW
** Name: C09D_W_Contact_4   Type: Concentrated force
*Cload, op=NEW
** Name: C09D_W_SteelGravity   Type: Gravity
*Dload, op=NEW
** Name: C09D_mW_Contact_1   Type: Concentrated force
*Cload, op=NEW
CONTACT_ROW_1, 2, -35.556
CONTACT_ROW_1, 3, -38.0225
** Name: C09D_mW_Contact_2   Type: Concentrated force
*Cload, op=NEW
CONTACT_ROW_2, 2, -35.556
CONTACT_ROW_2, 3, -38.0225
** Name: C09D_mW_Contact_3   Type: Concentrated force
*Cload, op=NEW
CONTACT_ROW_3, 2, -35.556
CONTACT_ROW_3, 3, -38.0225
** Name: C09D_mW_Contact_4   Type: Concentrated force
*Cload, op=NEW
CONTACT_ROW_4, 2, -35.556
CONTACT_ROW_4, 3, -38.0225
** Name: C09D_mW_SteelGravity   Type: Gravity
*Dload, op=NEW
, GRAV, 8829., 0., 0., -1.
** 
** OUTPUT REQUESTS
** 
*Restart, write, frequency=0
** 
** FIELD OUTPUT: Nodal
** 
*Output, field, frequency=99999
*Node Output
RF, RM, U
** 
** FIELD OUTPUT: Section_P2
** 
*Element Output, elset=FRAME.P2, directions=YES
1, 2, 3, 4, 5, 6, 7, 8, 9, 10, 11
S, SF
** 
** FIELD OUTPUT: Section_P3
** 
*Element Output, elset=FRAME.P3, directions=YES
1, 2, 3, 4, 5, 6, 7, 8, 9, 10, 11
S, SF
** 
** FIELD OUTPUT: Section_P4
** 
*Element Output, elset=FRAME.P4, directions=YES
1, 2, 3, 4, 5, 6, 7, 8, 9, 10, 11
S, SF
** 
** FIELD OUTPUT: Section_P5
** 
*Element Output, elset=FRAME.P5, directions=YES
1, 2, 3, 4, 5, 6, 7, 8, 9, 10, 11
S, SF
** 
** FIELD OUTPUT: Section_P6
** 
*Element Output, elset=FRAME.P6, directions=YES
1, 2, 3, 4, 5, 6, 7
S, SF
** 
** HISTORY OUTPUT: Energy
** 
*Output, history
*Energy Output
ALLSE, ALLWK
*End Step
