*Heading
 Solar support; see assumptions and run metadata; N mm tonne s
** Job name: Solar_006_two_outer Model name: SolarSupport
** Generated by: Abaqus/CAE 2024
*Preprint, echo=NO, model=NO, history=NO, contact=NO
**
** PARTS
**
*Part, name=SteelFrame
*Node
      1,   17735.5449,   2433.50488,   2186.45581
      2,       18148.,   2433.50488,   2186.45581
      3,       18148.,   2888.94629,   2398.77441
      4,   16910.6367,   2433.50488,   2186.45581
      5,       18148.,   2134.36011,        2047.
      6,   16085.7275,   2433.50488,   2186.45581
      7,   15260.8184,   2433.50488,   2186.45581
      8,   14435.9092,   2433.50488,   2186.45581
      9,       13611.,   2433.50488,   2186.45581
     10,   12786.0908,   2433.50488,   2186.45581
     11,   11961.1816,   2433.50488,   2186.45581
     12,   11136.2725,   2433.50488,   2186.45581
     13,   10311.3633,   2433.50488,   2186.45581
     14,    9486.4541,   2433.50488,   2186.45581
     15,        9074.,   2433.50488,   2186.45581
     16,    8661.5459,   2433.50488,   2186.45581
     17,   7836.63623,   2433.50488,   2186.45581
     18,   7011.72705,   2433.50488,   2186.45581
     19,   6186.81836,   2433.50488,   2186.45581
     20,   5361.90918,   2433.50488,   2186.45581
     21,        4537.,   2433.50488,   2186.45581
     22,   3712.09082,   2433.50488,   2186.45581
     23,   2887.18188,   2433.50488,   2186.45581
     24,   2062.27271,   2433.50488,   2186.45581
     25,   1237.36365,   2433.50488,   2186.45581
     26,   412.454559,   2433.50488,   2186.45581
     27,           0.,   2433.50488,   2186.45581
     28,           0.,   2888.94629,   2398.77441
     29,       18148.,           0.,        1052.
     30,       18148.,  -299.144806,   912.544128
     31,       18148.,  -754.586365,   700.225464
     32,       13611.,   2888.94629,   2398.77441
     33,       13611.,   2134.36011,        2047.
     34,       13611.,           0.,        1052.
     35,       13611.,  -299.144806,   912.544128
     36,       13611.,  -754.586365,   700.225464
     37,        9074.,   2888.94629,   2398.77441
     38,        9074.,   2134.36011,        2047.
     39,        9074.,           0.,        1052.
     40,        9074.,  -299.144806,   912.544128
     41,        9074.,  -754.586365,   700.225464
     42,        4537.,   2888.94629,   2398.77441
     43,        4537.,   2134.36011,        2047.
     44,        4537.,           0.,        1052.
     45,        4537.,  -299.144806,   912.544128
     46,        4537.,  -754.586365,   700.225464
     47,           0.,   2134.36011,        2047.
     48,           0.,           0.,        1052.
     49,           0.,  -299.144806,   912.544128
     50,           0.,  -754.586365,   700.225464
     51,       18148.,   2134.36011,   416.769989
     52,       18148.,   2134.36011,           0.
     53,       18148.,           0.,         927.
     54,       18148.,           0.,           0.
     55,   17735.5449,  -299.144806,   912.544128
     56,   16910.6367,  -299.144806,   912.544128
     57,   16085.7275,  -299.144806,   912.544128
     58,   15260.8184,  -299.144806,   912.544128
     59,   14435.9092,  -299.144806,   912.544128
     60,   12786.0908,  -299.144806,   912.544128
     61,   11961.1816,  -299.144806,   912.544128
     62,   11136.2725,  -299.144806,   912.544128
     63,   10311.3633,  -299.144806,   912.544128
     64,    9486.4541,  -299.144806,   912.544128
     65,    8661.5459,  -299.144806,   912.544128
     66,   7836.63623,  -299.144806,   912.544128
     67,   7011.72705,  -299.144806,   912.544128
     68,   6186.81836,  -299.144806,   912.544128
     69,   5361.90918,  -299.144806,   912.544128
     70,   3712.09082,  -299.144806,   912.544128
     71,   2887.18188,  -299.144806,   912.544128
     72,   2062.27271,  -299.144806,   912.544128
     73,   1237.36365,  -299.144806,   912.544128
     74,   412.454559,  -299.144806,   912.544128
     75,       13611.,   2134.36011,   416.769989
     76,       13611.,   2134.36011,           0.
     77,       13611.,           0.,         927.
     78,       13611.,           0.,           0.
     79,        9074.,   2134.36011,   416.769989
     80,        9074.,   2134.36011,           0.
     81,        9074.,           0.,         927.
     82,        9074.,           0.,           0.
     83,        4537.,   2134.36011,   416.769989
     84,        4537.,   2134.36011,           0.
     85,        4537.,           0.,         927.
     86,        4537.,           0.,           0.
     87,           0.,   2134.36011,   416.769989
     88,           0.,   2134.36011,           0.
     89,           0.,           0.,         927.
     90,           0.,           0.,           0.
     91,   17941.7734,   2433.50488,   2186.45581
     92,       18148.,    2585.3186,   2257.22876
     93,       18148.,   2737.13257,   2328.00171
     94,   17116.8633,   2433.50488,   2186.45581
     95,   17323.0918,   2433.50488,   2186.45581
     96,   17529.3184,   2433.50488,   2186.45581
     97,       18148.,   2283.93237,   2116.72803
     98,   16291.9541,   2433.50488,   2186.45581
     99,   16498.1816,   2433.50488,   2186.45581
    100,   16704.4082,   2433.50488,   2186.45581
    101,   15467.0459,   2433.50488,   2186.45581
    102,   15673.2725,   2433.50488,   2186.45581
    103,      15879.5,   2433.50488,   2186.45581
    104,   14642.1367,   2433.50488,   2186.45581
    105,   14848.3633,   2433.50488,   2186.45581
    106,   15054.5908,   2433.50488,   2186.45581
    107,   13817.2275,   2433.50488,   2186.45581
    108,   14023.4541,   2433.50488,   2186.45581
    109,   14229.6816,   2433.50488,   2186.45581
    110,   12992.3184,   2433.50488,   2186.45581
    111,   13198.5459,   2433.50488,   2186.45581
    112,   13404.7725,   2433.50488,   2186.45581
    113,   12167.4092,   2433.50488,   2186.45581
    114,   12373.6367,   2433.50488,   2186.45581
    115,   12579.8633,   2433.50488,   2186.45581
    116,      11342.5,   2433.50488,   2186.45581
    117,   11548.7275,   2433.50488,   2186.45581
    118,   11754.9541,   2433.50488,   2186.45581
    119,   10517.5908,   2433.50488,   2186.45581
    120,   10723.8184,   2433.50488,   2186.45581
    121,   10930.0459,   2433.50488,   2186.45581
    122,   9692.68164,   2433.50488,   2186.45581
    123,   9898.90918,   2433.50488,   2186.45581
    124,   10105.1367,   2433.50488,   2186.45581
    125,   9280.22754,   2433.50488,   2186.45581
    126,   8867.77246,   2433.50488,   2186.45581
    127,   8042.86377,   2433.50488,   2186.45581
    128,   8249.09082,   2433.50488,   2186.45581
    129,   8455.31836,   2433.50488,   2186.45581
    130,   7217.95459,   2433.50488,   2186.45581
    131,   7424.18164,   2433.50488,   2186.45581
    132,   7630.40918,   2433.50488,   2186.45581
    133,   6393.04541,   2433.50488,   2186.45581
    134,   6599.27295,   2433.50488,   2186.45581
    135,       6805.5,   2433.50488,   2186.45581
    136,   5568.13623,   2433.50488,   2186.45581
    137,   5774.36377,   2433.50488,   2186.45581
    138,   5980.59082,   2433.50488,   2186.45581
    139,   4743.22705,   2433.50488,   2186.45581
    140,   4949.45459,   2433.50488,   2186.45581
    141,   5155.68164,   2433.50488,   2186.45581
    142,   3918.31812,   2433.50488,   2186.45581
    143,   4124.54541,   2433.50488,   2186.45581
    144,   4330.77295,   2433.50488,   2186.45581
    145,   3093.40918,   2433.50488,   2186.45581
    146,   3299.63647,   2433.50488,   2186.45581
    147,   3505.86353,   2433.50488,   2186.45581
    148,       2268.5,   2433.50488,   2186.45581
    149,   2474.72729,   2433.50488,   2186.45581
    150,   2680.95459,   2433.50488,   2186.45581
    151,   1443.59094,   2433.50488,   2186.45581
    152,   1649.81824,   2433.50488,   2186.45581
    153,   1856.04541,   2433.50488,   2186.45581
    154,   618.681824,   2433.50488,   2186.45581
    155,   824.909119,   2433.50488,   2186.45581
    156,   1031.13635,   2433.50488,   2186.45581
    157,    206.22728,   2433.50488,   2186.45581
    158,           0.,    2585.3186,   2257.22876
    159,           0.,   2737.13257,   2328.00171
    160,       18148.,   177.863327,   1134.91663
    161,       18148.,   355.726654,   1217.83337
    162,       18148.,   533.590027,      1300.75
    163,       18148.,   711.453308,   1383.66663
    164,       18148.,    889.31665,   1466.58337
    165,       18148.,   1067.18005,       1549.5
    166,       18148.,   1245.04333,   1632.41663
    167,       18148.,   1422.90662,   1715.33337
    168,       18148.,   1600.77002,      1798.25
    169,       18148.,    1778.6333,   1881.16663
    170,       18148.,    1956.4967,   1964.08337
    171,       18148.,  -149.572403,   982.272034
    172,       18148.,  -602.772522,   770.998352
    173,       18148.,  -450.958649,    841.77124
    174,       13611.,    2585.3186,   2257.22876
    175,       13611.,   2737.13257,   2328.00171
    176,       13611.,   2283.93237,   2116.72803
    177,       13611.,   177.863327,   1134.91663
    178,       13611.,   355.726654,   1217.83337
    179,       13611.,   533.590027,      1300.75
    180,       13611.,   711.453308,   1383.66663
    181,       13611.,    889.31665,   1466.58337
    182,       13611.,   1067.18005,       1549.5
    183,       13611.,   1245.04333,   1632.41663
    184,       13611.,   1422.90662,   1715.33337
    185,       13611.,   1600.77002,      1798.25
    186,       13611.,    1778.6333,   1881.16663
    187,       13611.,    1956.4967,   1964.08337
    188,       13611.,  -149.572403,   982.272034
    189,       13611.,  -602.772522,   770.998352
    190,       13611.,  -450.958649,    841.77124
    191,        9074.,    2585.3186,   2257.22876
    192,        9074.,   2737.13257,   2328.00171
    193,        9074.,   2283.93237,   2116.72803
    194,        9074.,   177.863327,   1134.91663
    195,        9074.,   355.726654,   1217.83337
    196,        9074.,   533.590027,      1300.75
    197,        9074.,   711.453308,   1383.66663
    198,        9074.,    889.31665,   1466.58337
    199,        9074.,   1067.18005,       1549.5
    200,        9074.,   1245.04333,   1632.41663
    201,        9074.,   1422.90662,   1715.33337
    202,        9074.,   1600.77002,      1798.25
    203,        9074.,    1778.6333,   1881.16663
    204,        9074.,    1956.4967,   1964.08337
    205,        9074.,  -149.572403,   982.272034
    206,        9074.,  -602.772522,   770.998352
    207,        9074.,  -450.958649,    841.77124
    208,        4537.,    2585.3186,   2257.22876
    209,        4537.,   2737.13257,   2328.00171
    210,        4537.,   2283.93237,   2116.72803
    211,        4537.,   177.863327,   1134.91663
    212,        4537.,   355.726654,   1217.83337
    213,        4537.,   533.590027,      1300.75
    214,        4537.,   711.453308,   1383.66663
    215,        4537.,    889.31665,   1466.58337
    216,        4537.,   1067.18005,       1549.5
    217,        4537.,   1245.04333,   1632.41663
    218,        4537.,   1422.90662,   1715.33337
    219,        4537.,   1600.77002,      1798.25
    220,        4537.,    1778.6333,   1881.16663
    221,        4537.,    1956.4967,   1964.08337
    222,        4537.,  -149.572403,   982.272034
    223,        4537.,  -602.772522,   770.998352
    224,        4537.,  -450.958649,    841.77124
    225,           0.,   2283.93237,   2116.72803
    226,           0.,   177.863327,   1134.91663
    227,           0.,   355.726654,   1217.83337
    228,           0.,   533.590027,      1300.75
    229,           0.,   711.453308,   1383.66663
    230,           0.,    889.31665,   1466.58337
    231,           0.,   1067.18005,       1549.5
    232,           0.,   1245.04333,   1632.41663
    233,           0.,   1422.90662,   1715.33337
    234,           0.,   1600.77002,      1798.25
    235,           0.,    1778.6333,   1881.16663
    236,           0.,    1956.4967,   1964.08337
    237,           0.,  -149.572403,   982.272034
    238,           0.,  -602.772522,   770.998352
    239,           0.,  -450.958649,    841.77124
    240,       18148.,   2134.36011,   620.548767
    241,       18148.,   2134.36011,   824.327515
    242,       18148.,   2134.36011,    1028.1062
    243,       18148.,   2134.36011,   1231.88501
    244,       18148.,   2134.36011,    1435.6637
    245,       18148.,   2134.36011,    1639.4425
    246,       18148.,   2134.36011,   1843.22119
    247,       18148.,   2134.36011,   208.384995
    248,       18148.,           0.,   185.399994
    249,       18148.,           0.,   370.799988
    250,       18148.,           0.,   556.200012
    251,       18148.,           0.,   741.599976
    252,   17941.7734,  -299.144806,   912.544128
    253,   17116.8633,  -299.144806,   912.544128
    254,   17323.0918,  -299.144806,   912.544128
    255,   17529.3184,  -299.144806,   912.544128
    256,   16291.9541,  -299.144806,   912.544128
    257,   16498.1816,  -299.144806,   912.544128
    258,   16704.4082,  -299.144806,   912.544128
    259,   15467.0459,  -299.144806,   912.544128
    260,   15673.2725,  -299.144806,   912.544128
    261,      15879.5,  -299.144806,   912.544128
    262,   14642.1367,  -299.144806,   912.544128
    263,   14848.3633,  -299.144806,   912.544128
    264,   15054.5908,  -299.144806,   912.544128
    265,   13817.2275,  -299.144806,   912.544128
    266,   14023.4541,  -299.144806,   912.544128
    267,   14229.6816,  -299.144806,   912.544128
    268,   12992.3184,  -299.144806,   912.544128
    269,   13198.5459,  -299.144806,   912.544128
    270,   13404.7725,  -299.144806,   912.544128
    271,   12167.4092,  -299.144806,   912.544128
    272,   12373.6367,  -299.144806,   912.544128
    273,   12579.8633,  -299.144806,   912.544128
    274,      11342.5,  -299.144806,   912.544128
    275,   11548.7275,  -299.144806,   912.544128
    276,   11754.9541,  -299.144806,   912.544128
    277,   10517.5908,  -299.144806,   912.544128
    278,   10723.8184,  -299.144806,   912.544128
    279,   10930.0459,  -299.144806,   912.544128
    280,   9692.68164,  -299.144806,   912.544128
    281,   9898.90918,  -299.144806,   912.544128
    282,   10105.1367,  -299.144806,   912.544128
    283,   9280.22754,  -299.144806,   912.544128
    284,   8867.77246,  -299.144806,   912.544128
    285,   8042.86377,  -299.144806,   912.544128
    286,   8249.09082,  -299.144806,   912.544128
    287,   8455.31836,  -299.144806,   912.544128
    288,   7217.95459,  -299.144806,   912.544128
    289,   7424.18164,  -299.144806,   912.544128
    290,   7630.40918,  -299.144806,   912.544128
    291,   6393.04541,  -299.144806,   912.544128
    292,   6599.27295,  -299.144806,   912.544128
    293,       6805.5,  -299.144806,   912.544128
    294,   5568.13623,  -299.144806,   912.544128
    295,   5774.36377,  -299.144806,   912.544128
    296,   5980.59082,  -299.144806,   912.544128
    297,   4743.22705,  -299.144806,   912.544128
    298,   4949.45459,  -299.144806,   912.544128
    299,   5155.68164,  -299.144806,   912.544128
    300,   3918.31812,  -299.144806,   912.544128
    301,   4124.54541,  -299.144806,   912.544128
    302,   4330.77295,  -299.144806,   912.544128
    303,   3093.40918,  -299.144806,   912.544128
    304,   3299.63647,  -299.144806,   912.544128
    305,   3505.86353,  -299.144806,   912.544128
    306,       2268.5,  -299.144806,   912.544128
    307,   2474.72729,  -299.144806,   912.544128
    308,   2680.95459,  -299.144806,   912.544128
    309,   1443.59094,  -299.144806,   912.544128
    310,   1649.81824,  -299.144806,   912.544128
    311,   1856.04541,  -299.144806,   912.544128
    312,   618.681824,  -299.144806,   912.544128
    313,   824.909119,  -299.144806,   912.544128
    314,   1031.13635,  -299.144806,   912.544128
    315,    206.22728,  -299.144806,   912.544128
    316,       13611.,   2134.36011,   620.548767
    317,       13611.,   2134.36011,   824.327515
    318,       13611.,   2134.36011,    1028.1062
    319,       13611.,   2134.36011,   1231.88501
    320,       13611.,   2134.36011,    1435.6637
    321,       13611.,   2134.36011,    1639.4425
    322,       13611.,   2134.36011,   1843.22119
    323,       13611.,   2134.36011,   208.384995
    324,       13611.,           0.,   185.399994
    325,       13611.,           0.,   370.799988
    326,       13611.,           0.,   556.200012
    327,       13611.,           0.,   741.599976
    328,        9074.,   2134.36011,   620.548767
    329,        9074.,   2134.36011,   824.327515
    330,        9074.,   2134.36011,    1028.1062
    331,        9074.,   2134.36011,   1231.88501
    332,        9074.,   2134.36011,    1435.6637
    333,        9074.,   2134.36011,    1639.4425
    334,        9074.,   2134.36011,   1843.22119
    335,        9074.,   2134.36011,   208.384995
    336,        9074.,           0.,   185.399994
    337,        9074.,           0.,   370.799988
    338,        9074.,           0.,   556.200012
    339,        9074.,           0.,   741.599976
    340,        4537.,   2134.36011,   620.548767
    341,        4537.,   2134.36011,   824.327515
    342,        4537.,   2134.36011,    1028.1062
    343,        4537.,   2134.36011,   1231.88501
    344,        4537.,   2134.36011,    1435.6637
    345,        4537.,   2134.36011,    1639.4425
    346,        4537.,   2134.36011,   1843.22119
    347,        4537.,   2134.36011,   208.384995
    348,        4537.,           0.,   185.399994
    349,        4537.,           0.,   370.799988
    350,        4537.,           0.,   556.200012
    351,        4537.,           0.,   741.599976
    352,           0.,   2134.36011,   620.548767
    353,           0.,   2134.36011,   824.327515
    354,           0.,   2134.36011,    1028.1062
    355,           0.,   2134.36011,   1231.88501
    356,           0.,   2134.36011,    1435.6637
    357,           0.,   2134.36011,    1639.4425
    358,           0.,   2134.36011,   1843.22119
    359,           0.,   2134.36011,   208.384995
    360,           0.,           0.,   185.399994
    361,           0.,           0.,   370.799988
    362,           0.,           0.,   556.200012
    363,           0.,           0.,   741.599976
    364,       18148.,    194.03273,   880.615479
    365,       18148.,    388.06546,   834.230896
    366,       18148.,   582.098206,   787.846375
    367,       18148.,    776.13092,   741.461792
    368,       18148.,   970.163635,   695.077271
    369,       18148.,   1164.19641,   648.692749
    370,       18148.,   1358.22913,   602.308167
    371,       18148.,   1552.26184,   555.923645
    372,       18148.,   1746.29456,   509.539093
    373,       18148.,   1940.32727,   463.154541
    374,       13611.,    194.03273,   880.615479
    375,       13611.,    388.06546,   834.230896
    376,       13611.,   582.098206,   787.846375
    377,       13611.,    776.13092,   741.461792
    378,       13611.,   970.163635,   695.077271
    379,       13611.,   1164.19641,   648.692749
    380,       13611.,   1358.22913,   602.308167
    381,       13611.,   1552.26184,   555.923645
    382,       13611.,   1746.29456,   509.539093
    383,       13611.,   1940.32727,   463.154541
    384,        9074.,    194.03273,   880.615479
    385,        9074.,    388.06546,   834.230896
    386,        9074.,   582.098206,   787.846375
    387,        9074.,    776.13092,   741.461792
    388,        9074.,   970.163635,   695.077271
    389,        9074.,   1164.19641,   648.692749
    390,        9074.,   1358.22913,   602.308167
    391,        9074.,   1552.26184,   555.923645
    392,        9074.,   1746.29456,   509.539093
    393,        9074.,   1940.32727,   463.154541
    394,        4537.,    194.03273,   880.615479
    395,        4537.,    388.06546,   834.230896
    396,        4537.,   582.098206,   787.846375
    397,        4537.,    776.13092,   741.461792
    398,        4537.,   970.163635,   695.077271
    399,        4537.,   1164.19641,   648.692749
    400,        4537.,   1358.22913,   602.308167
    401,        4537.,   1552.26184,   555.923645
    402,        4537.,   1746.29456,   509.539093
    403,        4537.,   1940.32727,   463.154541
    404,           0.,    194.03273,   880.615479
    405,           0.,    388.06546,   834.230896
    406,           0.,   582.098206,   787.846375
    407,           0.,    776.13092,   741.461792
    408,           0.,   970.163635,   695.077271
    409,           0.,   1164.19641,   648.692749
    410,           0.,   1358.22913,   602.308167
    411,           0.,   1552.26184,   555.923645
    412,           0.,   1746.29456,   509.539093
    413,           0.,   1940.32727,   463.154541
*Element, type=B31
1,  1, 91
2, 91,  2
3,  2, 92
4, 92, 93
5, 93,  3
 6,  4, 94
 7, 94, 95
 8, 95, 96
 9, 96,  1
10,  5, 97
11, 97,  2
12,   6,  98
13,  98,  99
14,  99, 100
15, 100,   4
16,   7, 101
17, 101, 102
18, 102, 103
19, 103,   6
20,   8, 104
21, 104, 105
22, 105, 106
23, 106,   7
24,   9, 107
25, 107, 108
26, 108, 109
27, 109,   8
28,  10, 110
29, 110, 111
30, 111, 112
31, 112,   9
32,  11, 113
33, 113, 114
34, 114, 115
35, 115,  10
36,  12, 116
37, 116, 117
38, 117, 118
39, 118,  11
40,  13, 119
41, 119, 120
42, 120, 121
43, 121,  12
44,  14, 122
45, 122, 123
46, 123, 124
47, 124,  13
48,  15, 125
49, 125,  14
50,  16, 126
51, 126,  15
52,  17, 127
53, 127, 128
54, 128, 129
55, 129,  16
56,  18, 130
57, 130, 131
58, 131, 132
59, 132,  17
60,  19, 133
61, 133, 134
62, 134, 135
63, 135,  18
64,  20, 136
65, 136, 137
66, 137, 138
67, 138,  19
68,  21, 139
69, 139, 140
70, 140, 141
71, 141,  20
72,  22, 142
73, 142, 143
74, 143, 144
75, 144,  21
76,  23, 145
77, 145, 146
78, 146, 147
79, 147,  22
80,  24, 148
81, 148, 149
82, 149, 150
83, 150,  23
84,  25, 151
85, 151, 152
86, 152, 153
87, 153,  24
88,  26, 154
89, 154, 155
90, 155, 156
91, 156,  25
92,  27, 157
93, 157,  26
94,  27, 158
95, 158, 159
96, 159,  28
 97,  29, 160
 98, 160, 161
 99, 161, 162
100, 162, 163
101, 163, 164
102, 164, 165
103, 165, 166
104, 166, 167
105, 167, 168
106, 168, 169
107, 169, 170
108, 170,   5
109,  30, 171
110, 171,  29
111,  31, 172
112, 172, 173
113, 173,  30
114,   9, 174
115, 174, 175
116, 175,  32
117,  33, 176
118, 176,   9
119,  34, 177
120, 177, 178
121, 178, 179
122, 179, 180
123, 180, 181
124, 181, 182
125, 182, 183
126, 183, 184
127, 184, 185
128, 185, 186
129, 186, 187
130, 187,  33
131,  35, 188
132, 188,  34
133,  36, 189
134, 189, 190
135, 190,  35
136,  15, 191
137, 191, 192
138, 192,  37
139,  38, 193
140, 193,  15
141,  39, 194
142, 194, 195
143, 195, 196
144, 196, 197
145, 197, 198
146, 198, 199
147, 199, 200
148, 200, 201
149, 201, 202
150, 202, 203
151, 203, 204
152, 204,  38
153,  40, 205
154, 205,  39
155,  41, 206
156, 206, 207
157, 207,  40
158,  21, 208
159, 208, 209
160, 209,  42
161,  43, 210
162, 210,  21
163,  44, 211
164, 211, 212
165, 212, 213
166, 213, 214
167, 214, 215
168, 215, 216
169, 216, 217
170, 217, 218
171, 218, 219
172, 219, 220
173, 220, 221
174, 221,  43
175,  45, 222
176, 222,  44
177,  46, 223
178, 223, 224
179, 224,  45
180,  47, 225
181, 225,  27
182,  48, 226
183, 226, 227
184, 227, 228
185, 228, 229
186, 229, 230
187, 230, 231
188, 231, 232
189, 232, 233
190, 233, 234
191, 234, 235
192, 235, 236
193, 236,  47
194,  49, 237
195, 237,  48
196,  50, 238
197, 238, 239
198, 239,  49
199,  51, 240
200, 240, 241
201, 241, 242
202, 242, 243
203, 243, 244
204, 244, 245
205, 245, 246
206, 246,   5
207,  52, 247
208, 247,  51
209, 53, 29
210,  54, 248
211, 248, 249
212, 249, 250
213, 250, 251
214, 251,  53
215,  55, 252
216, 252,  30
217,  56, 253
218, 253, 254
219, 254, 255
220, 255,  55
221,  57, 256
222, 256, 257
223, 257, 258
224, 258,  56
225,  58, 259
226, 259, 260
227, 260, 261
228, 261,  57
229,  59, 262
230, 262, 263
231, 263, 264
232, 264,  58
233,  35, 265
234, 265, 266
235, 266, 267
236, 267,  59
237,  60, 268
238, 268, 269
239, 269, 270
240, 270,  35
241,  61, 271
242, 271, 272
243, 272, 273
244, 273,  60
245,  62, 274
246, 274, 275
247, 275, 276
248, 276,  61
249,  63, 277
250, 277, 278
251, 278, 279
252, 279,  62
253,  64, 280
254, 280, 281
255, 281, 282
256, 282,  63
257,  40, 283
258, 283,  64
259,  65, 284
260, 284,  40
261,  66, 285
262, 285, 286
263, 286, 287
264, 287,  65
265,  67, 288
266, 288, 289
267, 289, 290
268, 290,  66
269,  68, 291
270, 291, 292
271, 292, 293
272, 293,  67
273,  69, 294
274, 294, 295
275, 295, 296
276, 296,  68
277,  45, 297
278, 297, 298
279, 298, 299
280, 299,  69
281,  70, 300
282, 300, 301
283, 301, 302
284, 302,  45
285,  71, 303
286, 303, 304
287, 304, 305
288, 305,  70
289,  72, 306
290, 306, 307
291, 307, 308
292, 308,  71
293,  73, 309
294, 309, 310
295, 310, 311
296, 311,  72
297,  74, 312
298, 312, 313
299, 313, 314
300, 314,  73
301,  49, 315
302, 315,  74
303,  75, 316
304, 316, 317
305, 317, 318
306, 318, 319
307, 319, 320
308, 320, 321
309, 321, 322
310, 322,  33
311,  76, 323
312, 323,  75
313, 77, 34
314,  78, 324
315, 324, 325
316, 325, 326
317, 326, 327
318, 327,  77
319,  79, 328
320, 328, 329
321, 329, 330
322, 330, 331
323, 331, 332
324, 332, 333
325, 333, 334
326, 334,  38
327,  80, 335
328, 335,  79
329, 81, 39
330,  82, 336
331, 336, 337
332, 337, 338
333, 338, 339
334, 339,  81
335,  83, 340
336, 340, 341
337, 341, 342
338, 342, 343
339, 343, 344
340, 344, 345
341, 345, 346
342, 346,  43
343,  84, 347
344, 347,  83
345, 85, 44
346,  86, 348
347, 348, 349
348, 349, 350
349, 350, 351
350, 351,  85
351,  87, 352
352, 352, 353
353, 353, 354
354, 354, 355
355, 355, 356
356, 356, 357
357, 357, 358
358, 358,  47
359,  88, 359
360, 359,  87
361, 89, 48
362,  90, 360
363, 360, 361
364, 361, 362
365, 362, 363
366, 363,  89
367,  53, 364
368, 364, 365
369, 365, 366
370, 366, 367
371, 367, 368
372, 368, 369
373, 369, 370
374, 370, 371
375, 371, 372
376, 372, 373
377, 373,  51
378,  77, 374
379, 374, 375
380, 375, 376
381, 376, 377
382, 377, 378
383, 378, 379
384, 379, 380
385, 380, 381
386, 381, 382
387, 382, 383
388, 383,  75
389,  81, 384
390, 384, 385
391, 385, 386
392, 386, 387
393, 387, 388
394, 388, 389
395, 389, 390
396, 390, 391
397, 391, 392
398, 392, 393
399, 393,  79
400,  85, 394
401, 394, 395
402, 395, 396
403, 396, 397
404, 397, 398
405, 398, 399
406, 399, 400
407, 400, 401
408, 401, 402
409, 402, 403
410, 403,  83
411,  89, 404
412, 404, 405
413, 405, 406
414, 406, 407
415, 407, 408
416, 408, 409
417, 409, 410
418, 410, 411
419, 411, 412
420, 412, 413
421, 413,  87
*Nset, nset=P2
   2,   3,   5,   9,  15,  21,  27,  28,  29,  30,  31,  32,  33,  34,  35,  36
  37,  38,  39,  40,  41,  42,  43,  44,  45,  46,  47,  48,  49,  50,  92,  93
  97, 158, 159, 160, 161, 162, 163, 164, 165, 166, 167, 168, 169, 170, 171, 172
 173, 174, 175, 176, 177, 178, 179, 180, 181, 182, 183, 184, 185, 186, 187, 188
 189, 190, 191, 192, 193, 194, 195, 196, 197, 198, 199, 200, 201, 202, 203, 204
 205, 206, 207, 208, 209, 210, 211, 212, 213, 214, 215, 216, 217, 218, 219, 220
 221, 222, 223, 224, 225, 226, 227, 228, 229, 230, 231, 232, 233, 234, 235, 236
 237, 238, 239
*Elset, elset=P2
   3,   4,   5,  10,  11,  94,  95,  96,  97,  98,  99, 100, 101, 102, 103, 104
 105, 106, 107, 108, 109, 110, 111, 112, 113, 114, 115, 116, 117, 118, 119, 120
 121, 122, 123, 124, 125, 126, 127, 128, 129, 130, 131, 132, 133, 134, 135, 136
 137, 138, 139, 140, 141, 142, 143, 144, 145, 146, 147, 148, 149, 150, 151, 152
 153, 154, 155, 156, 157, 158, 159, 160, 161, 162, 163, 164, 165, 166, 167, 168
 169, 170, 171, 172, 173, 174, 175, 176, 177, 178, 179, 180, 181, 182, 183, 184
 185, 186, 187, 188, 189, 190, 191, 192, 193, 194, 195, 196, 197, 198
*Nset, nset=P3
  29,  34,  39,  44,  48,  53,  54,  77,  78,  81,  82,  85,  86,  89,  90, 248
 249, 250, 251, 324, 325, 326, 327, 336, 337, 338, 339, 348, 349, 350, 351, 360
 361, 362, 363
*Elset, elset=P3
 209, 210, 211, 212, 213, 214, 313, 314, 315, 316, 317, 318, 329, 330, 331, 332
 333, 334, 345, 346, 347, 348, 349, 350, 361, 362, 363, 364, 365, 366
*Nset, nset=P4
   5,  33,  38,  43,  47,  51,  52,  75,  76,  79,  80,  83,  84,  87,  88, 240
 241, 242, 243, 244, 245, 246, 247, 316, 317, 318, 319, 320, 321, 322, 323, 328
 329, 330, 331, 332, 333, 334, 335, 340, 341, 342, 343, 344, 345, 346, 347, 352
 353, 354, 355, 356, 357, 358, 359
*Elset, elset=P4
 199, 200, 201, 202, 203, 204, 205, 206, 207, 208, 303, 304, 305, 306, 307, 308
 309, 310, 311, 312, 319, 320, 321, 322, 323, 324, 325, 326, 327, 328, 335, 336
 337, 338, 339, 340, 341, 342, 343, 344, 351, 352, 353, 354, 355, 356, 357, 358
 359, 360
*Nset, nset=P5
   1,   2,   4,   6,   7,   8,   9,  10,  11,  12,  13,  14,  15,  16,  17,  18
  19,  20,  21,  22,  23,  24,  25,  26,  27,  30,  35,  40,  45,  49,  55,  56
  57,  58,  59,  60,  61,  62,  63,  64,  65,  66,  67,  68,  69,  70,  71,  72
  73,  74,  91,  94,  95,  96,  98,  99, 100, 101, 102, 103, 104, 105, 106, 107
 108, 109, 110, 111, 112, 113, 114, 115, 116, 117, 118, 119, 120, 121, 122, 123
 124, 125, 126, 127, 128, 129, 130, 131, 132, 133, 134, 135, 136, 137, 138, 139
 140, 141, 142, 143, 144, 145, 146, 147, 148, 149, 150, 151, 152, 153, 154, 155
 156, 157, 252, 253, 254, 255, 256, 257, 258, 259, 260, 261, 262, 263, 264, 265
 266, 267, 268, 269, 270, 271, 272, 273, 274, 275, 276, 277, 278, 279, 280, 281
 282, 283, 284, 285, 286, 287, 288, 289, 290, 291, 292, 293, 294, 295, 296, 297
 298, 299, 300, 301, 302, 303, 304, 305, 306, 307, 308, 309, 310, 311, 312, 313
 314, 315
*Elset, elset=P5
   1,   2,   6,   7,   8,   9,  12,  13,  14,  15,  16,  17,  18,  19,  20,  21
  22,  23,  24,  25,  26,  27,  28,  29,  30,  31,  32,  33,  34,  35,  36,  37
  38,  39,  40,  41,  42,  43,  44,  45,  46,  47,  48,  49,  50,  51,  52,  53
  54,  55,  56,  57,  58,  59,  60,  61,  62,  63,  64,  65,  66,  67,  68,  69
  70,  71,  72,  73,  74,  75,  76,  77,  78,  79,  80,  81,  82,  83,  84,  85
  86,  87,  88,  89,  90,  91,  92,  93, 215, 216, 217, 218, 219, 220, 221, 222
 223, 224, 225, 226, 227, 228, 229, 230, 231, 232, 233, 234, 235, 236, 237, 238
 239, 240, 241, 242, 243, 244, 245, 246, 247, 248, 249, 250, 251, 252, 253, 254
 255, 256, 257, 258, 259, 260, 261, 262, 263, 264, 265, 266, 267, 268, 269, 270
 271, 272, 273, 274, 275, 276, 277, 278, 279, 280, 281, 282, 283, 284, 285, 286
 287, 288, 289, 290, 291, 292, 293, 294, 295, 296, 297, 298, 299, 300, 301, 302
*Nset, nset=P6
  51,  53,  75,  77,  79,  81,  83,  85,  87,  89, 364, 365, 366, 367, 368, 369
 370, 371, 372, 373, 374, 375, 376, 377, 378, 379, 380, 381, 382, 383, 384, 385
 386, 387, 388, 389, 390, 391, 392, 393, 394, 395, 396, 397, 398, 399, 400, 401
 402, 403, 404, 405, 406, 407, 408, 409, 410, 411, 412, 413
*Elset, elset=P6, generate
 367,  421,    1
** Section: P5  Profile: C100
*Beam Section, elset=P5, material=S235JR, poisson = 0.3, temperature=GRADIENTS, section=ARBITRARY
5, 29.1607, 30., 29.1607, 48., 4.
-16.8393, 48., 4.
-16.8393, -48., 4.
29.1607, -48., 4.
29.1607, -30., 4.
0.,0.906351,0.422525
** Section: P2  Profile: C125
*Beam Section, elset=P2, material=S355JR, poisson = 0.3, temperature=GRADIENTS, section=ARBITRARY
5, 36.9745, 37.5, 36.9745, 60.5, 4.
-21.5255, 60.5, 4.
-21.5255, -60.5, 4.
36.9745, -60.5, 4.
36.9745, -37.5, 4.
1.,0.,0.
** Section: P4  Profile: C125
*Beam Section, elset=P4, material=S235JR, poisson = 0.3, temperature=GRADIENTS, section=ARBITRARY
5, 36.9745, 37.5, 36.9745, 60.5, 4.
-21.5255, 60.5, 4.
-21.5255, -60.5, 4.
36.9745, -60.5, 4.
36.9745, -37.5, 4.
1.,0.,0.
** Section: P3  Profile: C125
*Beam Section, elset=P3, material=S235JR, poisson = 0.3, temperature=GRADIENTS, section=ARBITRARY
5, 36.9745, 37.5, 36.9745, 60.5, 4.
-21.5255, 60.5, 4.
-21.5255, -60.5, 4.
36.9745, -60.5, 4.
36.9745, -37.5, 4.
1.,0.,0.
** Section: P6  Profile: C50
*Beam Section, elset=P6, material=S235JR, poisson = 0.3, temperature=GRADIENTS, section=ARBITRARY
3, 16.875, 22.5, -5.625, 22.5, 5.
-5.625, -22.5, 5.
16.875, -22.5, 5.
1.,0.,0.
*End Part
**  
**
** ASSEMBLY
**
*Assembly, name=Assembly
**  
*Instance, name=FRAME, part=SteelFrame
*End Instance
**  
*Nset, nset=BASES, instance=FRAME
 52, 54, 76, 78, 80, 82, 84, 86, 88, 90
*Nset, nset=CONTACT_ROW_1, instance=FRAME
 35, 45, 55, 56, 57, 58, 59, 60, 61, 62, 63, 64, 65, 66, 67, 68
 69, 70, 71, 72, 73, 74
*Nset, nset=CONTACT_ROW_2, instance=FRAME
  1,  4,  6,  7,  8,  9, 10, 11, 12, 13, 14, 16, 17, 18, 19, 20
 21, 22, 23, 24, 25, 26
*End Assembly
** 
** MATERIALS
** 
*Material, name=S235JR
*Density
 7.85e-09,
*Elastic
210000., 0.3
*Material, name=S355JR
*Density
 7.85e-09,
*Elastic
210000., 0.3
** 
** BOUNDARY CONDITIONS
** 
** Name: GroundFixity Type: Symmetry/Antisymmetry/Encastre
*Boundary
BASES, ENCASTRE
** ----------------------------------------------------------------
** 
** STEP: D
** 
*Step, name=D, nlgeom=NO
*Static
1., 1., 1e-05, 1.
** 
** LOADS
** 
** Name: D_Contact_1   Type: Concentrated force
*Cload, op=NEW
CONTACT_ROW_1, 2, 0.
CONTACT_ROW_1, 3, -253.985
** Name: D_Contact_2   Type: Concentrated force
*Cload, op=NEW
CONTACT_ROW_2, 2, 0.
CONTACT_ROW_2, 3, -253.985
** Name: D_SteelGravity   Type: Gravity
*Dload, op=NEW
, GRAV, 9810., 0., 0., -1.
** 
** OUTPUT REQUESTS
** 
*Restart, write, frequency=0
** 
** FIELD OUTPUT: Nodal
** 
*Output, field, frequency=99999
*Node Output
RF, RM, U
** 
** FIELD OUTPUT: Section_P2
** 
*Element Output, elset=FRAME.P2, directions=YES
1, 2, 3, 4, 5, 6, 7, 8, 9, 10, 11
S, SF
** 
** FIELD OUTPUT: Section_P3
** 
*Element Output, elset=FRAME.P3, directions=YES
1, 2, 3, 4, 5, 6, 7, 8, 9, 10, 11
S, SF
** 
** FIELD OUTPUT: Section_P4
** 
*Element Output, elset=FRAME.P4, directions=YES
1, 2, 3, 4, 5, 6, 7, 8, 9, 10, 11
S, SF
** 
** FIELD OUTPUT: Section_P5
** 
*Element Output, elset=FRAME.P5, directions=YES
1, 2, 3, 4, 5, 6, 7, 8, 9, 10, 11
S, SF
** 
** FIELD OUTPUT: Section_P6
** 
*Element Output, elset=FRAME.P6, directions=YES
1, 2, 3, 4, 5, 6, 7
S, SF
** 
** HISTORY OUTPUT: Energy
** 
*Output, history
*Energy Output
ALLSE, ALLWK
*End Step
** ----------------------------------------------------------------
** 
** STEP: S
** 
*Step, name=S, nlgeom=NO
*Static
1., 1., 1e-05, 1.
** 
** LOADS
** 
** Name: D_Contact_1   Type: Concentrated force
*Cload, op=NEW
** Name: D_Contact_2   Type: Concentrated force
*Cload, op=NEW
** Name: D_SteelGravity   Type: Gravity
*Dload, op=NEW
** Name: S_Contact_1   Type: Concentrated force
*Cload, op=NEW
CONTACT_ROW_1, 2, 0.
CONTACT_ROW_1, 3, -1466.4
** Name: S_Contact_2   Type: Concentrated force
*Cload, op=NEW
CONTACT_ROW_2, 2, 0.
CONTACT_ROW_2, 3, -1466.4
** 
** OUTPUT REQUESTS
** 
*Restart, write, frequency=0
** 
** FIELD OUTPUT: Nodal
** 
*Output, field, frequency=99999
*Node Output
RF, RM, U
** 
** FIELD OUTPUT: Section_P2
** 
*Element Output, elset=FRAME.P2, directions=YES
1, 2, 3, 4, 5, 6, 7, 8, 9, 10, 11
S, SF
** 
** FIELD OUTPUT: Section_P3
** 
*Element Output, elset=FRAME.P3, directions=YES
1, 2, 3, 4, 5, 6, 7, 8, 9, 10, 11
S, SF
** 
** FIELD OUTPUT: Section_P4
** 
*Element Output, elset=FRAME.P4, directions=YES
1, 2, 3, 4, 5, 6, 7, 8, 9, 10, 11
S, SF
** 
** FIELD OUTPUT: Section_P5
** 
*Element Output, elset=FRAME.P5, directions=YES
1, 2, 3, 4, 5, 6, 7, 8, 9, 10, 11
S, SF
** 
** FIELD OUTPUT: Section_P6
** 
*Element Output, elset=FRAME.P6, directions=YES
1, 2, 3, 4, 5, 6, 7
S, SF
** 
** HISTORY OUTPUT: Energy
** 
*Output, history
*Energy Output
ALLSE, ALLWK
*End Step
** ----------------------------------------------------------------
** 
** STEP: W
** 
*Step, name=W, nlgeom=NO
*Static
1., 1., 1e-05, 1.
** 
** LOADS
** 
** Name: S_Contact_1   Type: Concentrated force
*Cload, op=NEW
** Name: S_Contact_2   Type: Concentrated force
*Cload, op=NEW
** Name: W_Contact_1   Type: Concentrated force
*Cload, op=NEW
CONTACT_ROW_1, 2, 71.112
CONTACT_ROW_1, 3, -152.541
** Name: W_Contact_2   Type: Concentrated force
*Cload, op=NEW
CONTACT_ROW_2, 2, 71.112
CONTACT_ROW_2, 3, -152.541
** 
** OUTPUT REQUESTS
** 
*Restart, write, frequency=0
** 
** FIELD OUTPUT: Nodal
** 
*Output, field, frequency=99999
*Node Output
RF, RM, U
** 
** FIELD OUTPUT: Section_P2
** 
*Element Output, elset=FRAME.P2, directions=YES
1, 2, 3, 4, 5, 6, 7, 8, 9, 10, 11
S, SF
** 
** FIELD OUTPUT: Section_P3
** 
*Element Output, elset=FRAME.P3, directions=YES
1, 2, 3, 4, 5, 6, 7, 8, 9, 10, 11
S, SF
** 
** FIELD OUTPUT: Section_P4
** 
*Element Output, elset=FRAME.P4, directions=YES
1, 2, 3, 4, 5, 6, 7, 8, 9, 10, 11
S, SF
** 
** FIELD OUTPUT: Section_P5
** 
*Element Output, elset=FRAME.P5, directions=YES
1, 2, 3, 4, 5, 6, 7, 8, 9, 10, 11
S, SF
** 
** FIELD OUTPUT: Section_P6
** 
*Element Output, elset=FRAME.P6, directions=YES
1, 2, 3, 4, 5, 6, 7
S, SF
** 
** HISTORY OUTPUT: Energy
** 
*Output, history
*Energy Output
ALLSE, ALLWK
*End Step
** ----------------------------------------------------------------
** 
** STEP: D_07S
** 
*Step, name=D_07S, nlgeom=NO
*Static
1., 1., 1e-05, 1.
** 
** LOADS
** 
** Name: D_07S_Contact_1   Type: Concentrated force
*Cload, op=NEW
CONTACT_ROW_1, 2, 0.
CONTACT_ROW_1, 3, -1280.47
** Name: D_07S_Contact_2   Type: Concentrated force
*Cload, op=NEW
CONTACT_ROW_2, 2, 0.
CONTACT_ROW_2, 3, -1280.47
** Name: D_07S_SteelGravity   Type: Gravity
*Dload, op=NEW
, GRAV, 9810., 0., 0., -1.
** Name: W_Contact_1   Type: Concentrated force
*Cload, op=NEW
** Name: W_Contact_2   Type: Concentrated force
*Cload, op=NEW
** 
** OUTPUT REQUESTS
** 
*Restart, write, frequency=0
** 
** FIELD OUTPUT: Nodal
** 
*Output, field, frequency=99999
*Node Output
RF, RM, U
** 
** FIELD OUTPUT: Section_P2
** 
*Element Output, elset=FRAME.P2, directions=YES
1, 2, 3, 4, 5, 6, 7, 8, 9, 10, 11
S, SF
** 
** FIELD OUTPUT: Section_P3
** 
*Element Output, elset=FRAME.P3, directions=YES
1, 2, 3, 4, 5, 6, 7, 8, 9, 10, 11
S, SF
** 
** FIELD OUTPUT: Section_P4
** 
*Element Output, elset=FRAME.P4, directions=YES
1, 2, 3, 4, 5, 6, 7, 8, 9, 10, 11
S, SF
** 
** FIELD OUTPUT: Section_P5
** 
*Element Output, elset=FRAME.P5, directions=YES
1, 2, 3, 4, 5, 6, 7, 8, 9, 10, 11
S, SF
** 
** FIELD OUTPUT: Section_P6
** 
*Element Output, elset=FRAME.P6, directions=YES
1, 2, 3, 4, 5, 6, 7
S, SF
** 
** HISTORY OUTPUT: Energy
** 
*Output, history
*Energy Output
ALLSE, ALLWK
*End Step
** ----------------------------------------------------------------
** 
** STEP: D_S
** 
*Step, name=D_S, nlgeom=NO
*Static
1., 1., 1e-05, 1.
** 
** LOADS
** 
** Name: D_07S_Contact_1   Type: Concentrated force
*Cload, op=NEW
** Name: D_07S_Contact_2   Type: Concentrated force
*Cload, op=NEW
** Name: D_07S_SteelGravity   Type: Gravity
*Dload, op=NEW
** Name: D_S_Contact_1   Type: Concentrated force
*Cload, op=NEW
CONTACT_ROW_1, 2, 0.
CONTACT_ROW_1, 3, -1720.39
** Name: D_S_Contact_2   Type: Concentrated force
*Cload, op=NEW
CONTACT_ROW_2, 2, 0.
CONTACT_ROW_2, 3, -1720.39
** Name: D_S_SteelGravity   Type: Gravity
*Dload, op=NEW
, GRAV, 9810., 0., 0., -1.
** 
** OUTPUT REQUESTS
** 
*Restart, write, frequency=0
** 
** FIELD OUTPUT: Nodal
** 
*Output, field, frequency=99999
*Node Output
RF, RM, U
** 
** FIELD OUTPUT: Section_P2
** 
*Element Output, elset=FRAME.P2, directions=YES
1, 2, 3, 4, 5, 6, 7, 8, 9, 10, 11
S, SF
** 
** FIELD OUTPUT: Section_P3
** 
*Element Output, elset=FRAME.P3, directions=YES
1, 2, 3, 4, 5, 6, 7, 8, 9, 10, 11
S, SF
** 
** FIELD OUTPUT: Section_P4
** 
*Element Output, elset=FRAME.P4, directions=YES
1, 2, 3, 4, 5, 6, 7, 8, 9, 10, 11
S, SF
** 
** FIELD OUTPUT: Section_P5
** 
*Element Output, elset=FRAME.P5, directions=YES
1, 2, 3, 4, 5, 6, 7, 8, 9, 10, 11
S, SF
** 
** FIELD OUTPUT: Section_P6
** 
*Element Output, elset=FRAME.P6, directions=YES
1, 2, 3, 4, 5, 6, 7
S, SF
** 
** HISTORY OUTPUT: Energy
** 
*Output, history
*Energy Output
ALLSE, ALLWK
*End Step
** ----------------------------------------------------------------
** 
** STEP: D_S_W
** 
*Step, name=D_S_W, nlgeom=NO
*Static
1., 1., 1e-05, 1.
** 
** LOADS
** 
** Name: D_S_Contact_1   Type: Concentrated force
*Cload, op=NEW
** Name: D_S_Contact_2   Type: Concentrated force
*Cload, op=NEW
** Name: D_S_SteelGravity   Type: Gravity
*Dload, op=NEW
** Name: D_S_W_Contact_1   Type: Concentrated force
*Cload, op=NEW
CONTACT_ROW_1, 2, 71.112
CONTACT_ROW_1, 3, -1872.93
** Name: D_S_W_Contact_2   Type: Concentrated force
*Cload, op=NEW
CONTACT_ROW_2, 2, 71.112
CONTACT_ROW_2, 3, -1872.93
** Name: D_S_W_SteelGravity   Type: Gravity
*Dload, op=NEW
, GRAV, 9810., 0., 0., -1.
** 
** OUTPUT REQUESTS
** 
*Restart, write, frequency=0
** 
** FIELD OUTPUT: Nodal
** 
*Output, field, frequency=99999
*Node Output
RF, RM, U
** 
** FIELD OUTPUT: Section_P2
** 
*Element Output, elset=FRAME.P2, directions=YES
1, 2, 3, 4, 5, 6, 7, 8, 9, 10, 11
S, SF
** 
** FIELD OUTPUT: Section_P3
** 
*Element Output, elset=FRAME.P3, directions=YES
1, 2, 3, 4, 5, 6, 7, 8, 9, 10, 11
S, SF
** 
** FIELD OUTPUT: Section_P4
** 
*Element Output, elset=FRAME.P4, directions=YES
1, 2, 3, 4, 5, 6, 7, 8, 9, 10, 11
S, SF
** 
** FIELD OUTPUT: Section_P5
** 
*Element Output, elset=FRAME.P5, directions=YES
1, 2, 3, 4, 5, 6, 7, 8, 9, 10, 11
S, SF
** 
** FIELD OUTPUT: Section_P6
** 
*Element Output, elset=FRAME.P6, directions=YES
1, 2, 3, 4, 5, 6, 7
S, SF
** 
** HISTORY OUTPUT: Energy
** 
*Output, history
*Energy Output
ALLSE, ALLWK
*End Step
** ----------------------------------------------------------------
** 
** STEP: D_S_mW
** 
*Step, name=D_S_mW, nlgeom=NO
*Static
1., 1., 1e-05, 1.
** 
** LOADS
** 
** Name: D_S_W_Contact_1   Type: Concentrated force
*Cload, op=NEW
** Name: D_S_W_Contact_2   Type: Concentrated force
*Cload, op=NEW
** Name: D_S_W_SteelGravity   Type: Gravity
*Dload, op=NEW
** Name: D_S_mW_Contact_1   Type: Concentrated force
*Cload, op=NEW
CONTACT_ROW_1, 2, -71.112
CONTACT_ROW_1, 3, -1567.84
** Name: D_S_mW_Contact_2   Type: Concentrated force
*Cload, op=NEW
CONTACT_ROW_2, 2, -71.112
CONTACT_ROW_2, 3, -1567.84
** Name: D_S_mW_SteelGravity   Type: Gravity
*Dload, op=NEW
, GRAV, 9810., 0., 0., -1.
** 
** OUTPUT REQUESTS
** 
*Restart, write, frequency=0
** 
** FIELD OUTPUT: Nodal
** 
*Output, field, frequency=99999
*Node Output
RF, RM, U
** 
** FIELD OUTPUT: Section_P2
** 
*Element Output, elset=FRAME.P2, directions=YES
1, 2, 3, 4, 5, 6, 7, 8, 9, 10, 11
S, SF
** 
** FIELD OUTPUT: Section_P3
** 
*Element Output, elset=FRAME.P3, directions=YES
1, 2, 3, 4, 5, 6, 7, 8, 9, 10, 11
S, SF
** 
** FIELD OUTPUT: Section_P4
** 
*Element Output, elset=FRAME.P4, directions=YES
1, 2, 3, 4, 5, 6, 7, 8, 9, 10, 11
S, SF
** 
** FIELD OUTPUT: Section_P5
** 
*Element Output, elset=FRAME.P5, directions=YES
1, 2, 3, 4, 5, 6, 7, 8, 9, 10, 11
S, SF
** 
** FIELD OUTPUT: Section_P6
** 
*Element Output, elset=FRAME.P6, directions=YES
1, 2, 3, 4, 5, 6, 7
S, SF
** 
** HISTORY OUTPUT: Energy
** 
*Output, history
*Energy Output
ALLSE, ALLWK
*End Step
** ----------------------------------------------------------------
** 
** STEP: C09D_W
** 
*Step, name=C09D_W, nlgeom=NO
*Static
1., 1., 1e-05, 1.
** 
** LOADS
** 
** Name: C09D_W_Contact_1   Type: Concentrated force
*Cload, op=NEW
CONTACT_ROW_1, 2, 71.112
CONTACT_ROW_1, 3, -381.128
** Name: C09D_W_Contact_2   Type: Concentrated force
*Cload, op=NEW
CONTACT_ROW_2, 2, 71.112
CONTACT_ROW_2, 3, -381.128
** Name: C09D_W_SteelGravity   Type: Gravity
*Dload, op=NEW
, GRAV, 8829., 0., 0., -1.
** Name: D_S_mW_Contact_1   Type: Concentrated force
*Cload, op=NEW
** Name: D_S_mW_Contact_2   Type: Concentrated force
*Cload, op=NEW
** Name: D_S_mW_SteelGravity   Type: Gravity
*Dload, op=NEW
** 
** OUTPUT REQUESTS
** 
*Restart, write, frequency=0
** 
** FIELD OUTPUT: Nodal
** 
*Output, field, frequency=99999
*Node Output
RF, RM, U
** 
** FIELD OUTPUT: Section_P2
** 
*Element Output, elset=FRAME.P2, directions=YES
1, 2, 3, 4, 5, 6, 7, 8, 9, 10, 11
S, SF
** 
** FIELD OUTPUT: Section_P3
** 
*Element Output, elset=FRAME.P3, directions=YES
1, 2, 3, 4, 5, 6, 7, 8, 9, 10, 11
S, SF
** 
** FIELD OUTPUT: Section_P4
** 
*Element Output, elset=FRAME.P4, directions=YES
1, 2, 3, 4, 5, 6, 7, 8, 9, 10, 11
S, SF
** 
** FIELD OUTPUT: Section_P5
** 
*Element Output, elset=FRAME.P5, directions=YES
1, 2, 3, 4, 5, 6, 7, 8, 9, 10, 11
S, SF
** 
** FIELD OUTPUT: Section_P6
** 
*Element Output, elset=FRAME.P6, directions=YES
1, 2, 3, 4, 5, 6, 7
S, SF
** 
** HISTORY OUTPUT: Energy
** 
*Output, history
*Energy Output
ALLSE, ALLWK
*End Step
** ----------------------------------------------------------------
** 
** STEP: C09D_mW
** 
*Step, name=C09D_mW, nlgeom=NO
*Static
1., 1., 1e-05, 1.
** 
** LOADS
** 
** Name: C09D_W_Contact_1   Type: Concentrated force
*Cload, op=NEW
** Name: C09D_W_Contact_2   Type: Concentrated force
*Cload, op=NEW
** Name: C09D_W_SteelGravity   Type: Gravity
*Dload, op=NEW
** Name: C09D_mW_Contact_1   Type: Concentrated force
*Cload, op=NEW
CONTACT_ROW_1, 2, -71.112
CONTACT_ROW_1, 3, -76.0451
** Name: C09D_mW_Contact_2   Type: Concentrated force
*Cload, op=NEW
CONTACT_ROW_2, 2, -71.112
CONTACT_ROW_2, 3, -76.0451
** Name: C09D_mW_SteelGravity   Type: Gravity
*Dload, op=NEW
, GRAV, 8829., 0., 0., -1.
** 
** OUTPUT REQUESTS
** 
*Restart, write, frequency=0
** 
** FIELD OUTPUT: Nodal
** 
*Output, field, frequency=99999
*Node Output
RF, RM, U
** 
** FIELD OUTPUT: Section_P2
** 
*Element Output, elset=FRAME.P2, directions=YES
1, 2, 3, 4, 5, 6, 7, 8, 9, 10, 11
S, SF
** 
** FIELD OUTPUT: Section_P3
** 
*Element Output, elset=FRAME.P3, directions=YES
1, 2, 3, 4, 5, 6, 7, 8, 9, 10, 11
S, SF
** 
** FIELD OUTPUT: Section_P4
** 
*Element Output, elset=FRAME.P4, directions=YES
1, 2, 3, 4, 5, 6, 7, 8, 9, 10, 11
S, SF
** 
** FIELD OUTPUT: Section_P5
** 
*Element Output, elset=FRAME.P5, directions=YES
1, 2, 3, 4, 5, 6, 7, 8, 9, 10, 11
S, SF
** 
** FIELD OUTPUT: Section_P6
** 
*Element Output, elset=FRAME.P6, directions=YES
1, 2, 3, 4, 5, 6, 7
S, SF
** 
** HISTORY OUTPUT: Energy
** 
*Output, history
*Energy Output
ALLSE, ALLWK
*End Step
