*Heading
 Solar support; see assumptions and run metadata; N mm tonne s
** Job name: Solar_003_wind378 Model name: SolarSupport
** Generated by: Abaqus/CAE 2024
*Preprint, echo=NO, model=NO, history=NO, contact=NO
**
** PARTS
**
*Part, name=SteelFrame
*Node
      1,   17735.5449,   2433.50488,   2186.45581
      2,       18148.,   2433.50488,   2186.45581
      3,       18148.,   2888.94629,   2398.77441
      4,   16910.6367,   2433.50488,   2186.45581
      5,       18148.,   2134.36011,        2047.
      6,   16085.7275,   2433.50488,   2186.45581
      7,   15260.8184,   2433.50488,   2186.45581
      8,   14435.9092,   2433.50488,   2186.45581
      9,       13611.,   2433.50488,   2186.45581
     10,   12786.0908,   2433.50488,   2186.45581
     11,   11961.1816,   2433.50488,   2186.45581
     12,   11136.2725,   2433.50488,   2186.45581
     13,   10311.3633,   2433.50488,   2186.45581
     14,    9486.4541,   2433.50488,   2186.45581
     15,        9074.,   2433.50488,   2186.45581
     16,    8661.5459,   2433.50488,   2186.45581
     17,   7836.63623,   2433.50488,   2186.45581
     18,   7011.72705,   2433.50488,   2186.45581
     19,   6186.81836,   2433.50488,   2186.45581
     20,   5361.90918,   2433.50488,   2186.45581
     21,        4537.,   2433.50488,   2186.45581
     22,   3712.09082,   2433.50488,   2186.45581
     23,   2887.18188,   2433.50488,   2186.45581
     24,   2062.27271,   2433.50488,   2186.45581
     25,   1237.36365,   2433.50488,   2186.45581
     26,   412.454559,   2433.50488,   2186.45581
     27,           0.,   2433.50488,   2186.45581
     28,           0.,   2888.94629,   2398.77441
     29,       18148.,   1522.62158,    1761.8186
     30,       18148.,   611.738403,    1337.1814
     31,       18148.,           0.,        1052.
     32,       18148.,  -299.144806,   912.544128
     33,       18148.,  -754.586365,   700.225464
     34,       13611.,   2888.94629,   2398.77441
     35,       13611.,   2134.36011,        2047.
     36,       13611.,   1522.62158,    1761.8186
     37,       13611.,   611.738403,    1337.1814
     38,       13611.,           0.,        1052.
     39,       13611.,  -299.144806,   912.544128
     40,       13611.,  -754.586365,   700.225464
     41,        9074.,   2888.94629,   2398.77441
     42,        9074.,   2134.36011,        2047.
     43,        9074.,   1522.62158,    1761.8186
     44,        9074.,   611.738403,    1337.1814
     45,        9074.,           0.,        1052.
     46,        9074.,  -299.144806,   912.544128
     47,        9074.,  -754.586365,   700.225464
     48,        4537.,   2888.94629,   2398.77441
     49,        4537.,   2134.36011,        2047.
     50,        4537.,   1522.62158,    1761.8186
     51,        4537.,   611.738403,    1337.1814
     52,        4537.,           0.,        1052.
     53,        4537.,  -299.144806,   912.544128
     54,        4537.,  -754.586365,   700.225464
     55,           0.,   2134.36011,        2047.
     56,           0.,   1522.62158,    1761.8186
     57,           0.,   611.738403,    1337.1814
     58,           0.,           0.,        1052.
     59,           0.,  -299.144806,   912.544128
     60,           0.,  -754.586365,   700.225464
     61,       18148.,   2134.36011,   416.769989
     62,       18148.,   2134.36011,           0.
     63,   17735.5449,   1522.62158,    1761.8186
     64,   16910.6367,   1522.62158,    1761.8186
     65,   16085.7275,   1522.62158,    1761.8186
     66,   15260.8184,   1522.62158,    1761.8186
     67,   14435.9092,   1522.62158,    1761.8186
     68,   12786.0908,   1522.62158,    1761.8186
     69,   11961.1816,   1522.62158,    1761.8186
     70,   11136.2725,   1522.62158,    1761.8186
     71,   10311.3633,   1522.62158,    1761.8186
     72,    9486.4541,   1522.62158,    1761.8186
     73,    8661.5459,   1522.62158,    1761.8186
     74,   7836.63623,   1522.62158,    1761.8186
     75,   7011.72705,   1522.62158,    1761.8186
     76,   6186.81836,   1522.62158,    1761.8186
     77,   5361.90918,   1522.62158,    1761.8186
     78,   3712.09082,   1522.62158,    1761.8186
     79,   2887.18188,   1522.62158,    1761.8186
     80,   2062.27271,   1522.62158,    1761.8186
     81,   1237.36365,   1522.62158,    1761.8186
     82,   412.454559,   1522.62158,    1761.8186
     83,   17735.5449,   611.738403,    1337.1814
     84,   16910.6367,   611.738403,    1337.1814
     85,   16085.7275,   611.738403,    1337.1814
     86,   15260.8184,   611.738403,    1337.1814
     87,   14435.9092,   611.738403,    1337.1814
     88,   12786.0908,   611.738403,    1337.1814
     89,   11961.1816,   611.738403,    1337.1814
     90,   11136.2725,   611.738403,    1337.1814
     91,   10311.3633,   611.738403,    1337.1814
     92,    9486.4541,   611.738403,    1337.1814
     93,    8661.5459,   611.738403,    1337.1814
     94,   7836.63623,   611.738403,    1337.1814
     95,   7011.72705,   611.738403,    1337.1814
     96,   6186.81836,   611.738403,    1337.1814
     97,   5361.90918,   611.738403,    1337.1814
     98,   3712.09082,   611.738403,    1337.1814
     99,   2887.18188,   611.738403,    1337.1814
    100,   2062.27271,   611.738403,    1337.1814
    101,   1237.36365,   611.738403,    1337.1814
    102,   412.454559,   611.738403,    1337.1814
    103,       18148.,           0.,         927.
    104,       18148.,           0.,           0.
    105,   17735.5449,  -299.144806,   912.544128
    106,   16910.6367,  -299.144806,   912.544128
    107,   16085.7275,  -299.144806,   912.544128
    108,   15260.8184,  -299.144806,   912.544128
    109,   14435.9092,  -299.144806,   912.544128
    110,   12786.0908,  -299.144806,   912.544128
    111,   11961.1816,  -299.144806,   912.544128
    112,   11136.2725,  -299.144806,   912.544128
    113,   10311.3633,  -299.144806,   912.544128
    114,    9486.4541,  -299.144806,   912.544128
    115,    8661.5459,  -299.144806,   912.544128
    116,   7836.63623,  -299.144806,   912.544128
    117,   7011.72705,  -299.144806,   912.544128
    118,   6186.81836,  -299.144806,   912.544128
    119,   5361.90918,  -299.144806,   912.544128
    120,   3712.09082,  -299.144806,   912.544128
    121,   2887.18188,  -299.144806,   912.544128
    122,   2062.27271,  -299.144806,   912.544128
    123,   1237.36365,  -299.144806,   912.544128
    124,   412.454559,  -299.144806,   912.544128
    125,       13611.,   2134.36011,   416.769989
    126,       13611.,   2134.36011,           0.
    127,       13611.,           0.,         927.
    128,       13611.,           0.,           0.
    129,        9074.,   2134.36011,   416.769989
    130,        9074.,   2134.36011,           0.
    131,        9074.,           0.,         927.
    132,        9074.,           0.,           0.
    133,        4537.,   2134.36011,   416.769989
    134,        4537.,   2134.36011,           0.
    135,        4537.,           0.,         927.
    136,        4537.,           0.,           0.
    137,           0.,   2134.36011,   416.769989
    138,           0.,   2134.36011,           0.
    139,           0.,           0.,         927.
    140,           0.,           0.,           0.
    141,   17941.7734,   2433.50488,   2186.45581
    142,       18148.,    2585.3186,   2257.22876
    143,       18148.,   2737.13257,   2328.00171
    144,   17116.8633,   2433.50488,   2186.45581
    145,   17323.0918,   2433.50488,   2186.45581
    146,   17529.3184,   2433.50488,   2186.45581
    147,       18148.,   2283.93237,   2116.72803
    148,   16291.9541,   2433.50488,   2186.45581
    149,   16498.1816,   2433.50488,   2186.45581
    150,   16704.4082,   2433.50488,   2186.45581
    151,   15467.0459,   2433.50488,   2186.45581
    152,   15673.2725,   2433.50488,   2186.45581
    153,      15879.5,   2433.50488,   2186.45581
    154,   14642.1367,   2433.50488,   2186.45581
    155,   14848.3633,   2433.50488,   2186.45581
    156,   15054.5908,   2433.50488,   2186.45581
    157,   13817.2275,   2433.50488,   2186.45581
    158,   14023.4541,   2433.50488,   2186.45581
    159,   14229.6816,   2433.50488,   2186.45581
    160,   12992.3184,   2433.50488,   2186.45581
    161,   13198.5459,   2433.50488,   2186.45581
    162,   13404.7725,   2433.50488,   2186.45581
    163,   12167.4092,   2433.50488,   2186.45581
    164,   12373.6367,   2433.50488,   2186.45581
    165,   12579.8633,   2433.50488,   2186.45581
    166,      11342.5,   2433.50488,   2186.45581
    167,   11548.7275,   2433.50488,   2186.45581
    168,   11754.9541,   2433.50488,   2186.45581
    169,   10517.5908,   2433.50488,   2186.45581
    170,   10723.8184,   2433.50488,   2186.45581
    171,   10930.0459,   2433.50488,   2186.45581
    172,   9692.68164,   2433.50488,   2186.45581
    173,   9898.90918,   2433.50488,   2186.45581
    174,   10105.1367,   2433.50488,   2186.45581
    175,   9280.22754,   2433.50488,   2186.45581
    176,   8867.77246,   2433.50488,   2186.45581
    177,   8042.86377,   2433.50488,   2186.45581
    178,   8249.09082,   2433.50488,   2186.45581
    179,   8455.31836,   2433.50488,   2186.45581
    180,   7217.95459,   2433.50488,   2186.45581
    181,   7424.18164,   2433.50488,   2186.45581
    182,   7630.40918,   2433.50488,   2186.45581
    183,   6393.04541,   2433.50488,   2186.45581
    184,   6599.27295,   2433.50488,   2186.45581
    185,       6805.5,   2433.50488,   2186.45581
    186,   5568.13623,   2433.50488,   2186.45581
    187,   5774.36377,   2433.50488,   2186.45581
    188,   5980.59082,   2433.50488,   2186.45581
    189,   4743.22705,   2433.50488,   2186.45581
    190,   4949.45459,   2433.50488,   2186.45581
    191,   5155.68164,   2433.50488,   2186.45581
    192,   3918.31812,   2433.50488,   2186.45581
    193,   4124.54541,   2433.50488,   2186.45581
    194,   4330.77295,   2433.50488,   2186.45581
    195,   3093.40918,   2433.50488,   2186.45581
    196,   3299.63647,   2433.50488,   2186.45581
    197,   3505.86353,   2433.50488,   2186.45581
    198,       2268.5,   2433.50488,   2186.45581
    199,   2474.72729,   2433.50488,   2186.45581
    200,   2680.95459,   2433.50488,   2186.45581
    201,   1443.59094,   2433.50488,   2186.45581
    202,   1649.81824,   2433.50488,   2186.45581
    203,   1856.04541,   2433.50488,   2186.45581
    204,   618.681824,   2433.50488,   2186.45581
    205,   824.909119,   2433.50488,   2186.45581
    206,   1031.13635,   2433.50488,   2186.45581
    207,    206.22728,   2433.50488,   2186.45581
    208,           0.,    2585.3186,   2257.22876
    209,           0.,   2737.13257,   2328.00171
    210,       18148.,   1726.53442,   1856.87903
    211,       18148.,   1930.44714,   1951.93958
    212,       18148.,   793.915039,   1422.10876
    213,       18148.,   976.091675,   1507.03625
    214,       18148.,   1158.26831,   1591.96375
    215,       18148.,   1340.44495,   1676.89124
    216,       18148.,   203.912796,   1147.06042
    217,       18148.,   407.825592,   1242.12097
    218,       18148.,  -149.572403,   982.272034
    219,       18148.,  -602.772522,   770.998352
    220,       18148.,  -450.958649,    841.77124
    221,       13611.,    2585.3186,   2257.22876
    222,       13611.,   2737.13257,   2328.00171
    223,       13611.,   2283.93237,   2116.72803
    224,       13611.,   1726.53442,   1856.87903
    225,       13611.,   1930.44714,   1951.93958
    226,       13611.,   793.915039,   1422.10876
    227,       13611.,   976.091675,   1507.03625
    228,       13611.,   1158.26831,   1591.96375
    229,       13611.,   1340.44495,   1676.89124
    230,       13611.,   203.912796,   1147.06042
    231,       13611.,   407.825592,   1242.12097
    232,       13611.,  -149.572403,   982.272034
    233,       13611.,  -602.772522,   770.998352
    234,       13611.,  -450.958649,    841.77124
    235,        9074.,    2585.3186,   2257.22876
    236,        9074.,   2737.13257,   2328.00171
    237,        9074.,   2283.93237,   2116.72803
    238,        9074.,   1726.53442,   1856.87903
    239,        9074.,   1930.44714,   1951.93958
    240,        9074.,   793.915039,   1422.10876
    241,        9074.,   976.091675,   1507.03625
    242,        9074.,   1158.26831,   1591.96375
    243,        9074.,   1340.44495,   1676.89124
    244,        9074.,   203.912796,   1147.06042
    245,        9074.,   407.825592,   1242.12097
    246,        9074.,  -149.572403,   982.272034
    247,        9074.,  -602.772522,   770.998352
    248,        9074.,  -450.958649,    841.77124
    249,        4537.,    2585.3186,   2257.22876
    250,        4537.,   2737.13257,   2328.00171
    251,        4537.,   2283.93237,   2116.72803
    252,        4537.,   1726.53442,   1856.87903
    253,        4537.,   1930.44714,   1951.93958
    254,        4537.,   793.915039,   1422.10876
    255,        4537.,   976.091675,   1507.03625
    256,        4537.,   1158.26831,   1591.96375
    257,        4537.,   1340.44495,   1676.89124
    258,        4537.,   203.912796,   1147.06042
    259,        4537.,   407.825592,   1242.12097
    260,        4537.,  -149.572403,   982.272034
    261,        4537.,  -602.772522,   770.998352
    262,        4537.,  -450.958649,    841.77124
    263,           0.,   2283.93237,   2116.72803
    264,           0.,   1726.53442,   1856.87903
    265,           0.,   1930.44714,   1951.93958
    266,           0.,   793.915039,   1422.10876
    267,           0.,   976.091675,   1507.03625
    268,           0.,   1158.26831,   1591.96375
    269,           0.,   1340.44495,   1676.89124
    270,           0.,   203.912796,   1147.06042
    271,           0.,   407.825592,   1242.12097
    272,           0.,  -149.572403,   982.272034
    273,           0.,  -602.772522,   770.998352
    274,           0.,  -450.958649,    841.77124
    275,       18148.,   2134.36011,   620.548767
    276,       18148.,   2134.36011,   824.327515
    277,       18148.,   2134.36011,    1028.1062
    278,       18148.,   2134.36011,   1231.88501
    279,       18148.,   2134.36011,    1435.6637
    280,       18148.,   2134.36011,    1639.4425
    281,       18148.,   2134.36011,   1843.22119
    282,       18148.,   2134.36011,   208.384995
    283,   17941.7734,   1522.62158,    1761.8186
    284,   17116.8633,   1522.62158,    1761.8186
    285,   17323.0918,   1522.62158,    1761.8186
    286,   17529.3184,   1522.62158,    1761.8186
    287,   16291.9541,   1522.62158,    1761.8186
    288,   16498.1816,   1522.62158,    1761.8186
    289,   16704.4082,   1522.62158,    1761.8186
    290,   15467.0459,   1522.62158,    1761.8186
    291,   15673.2725,   1522.62158,    1761.8186
    292,      15879.5,   1522.62158,    1761.8186
    293,   14642.1367,   1522.62158,    1761.8186
    294,   14848.3633,   1522.62158,    1761.8186
    295,   15054.5908,   1522.62158,    1761.8186
    296,   13817.2275,   1522.62158,    1761.8186
    297,   14023.4541,   1522.62158,    1761.8186
    298,   14229.6816,   1522.62158,    1761.8186
    299,   12992.3184,   1522.62158,    1761.8186
    300,   13198.5459,   1522.62158,    1761.8186
    301,   13404.7725,   1522.62158,    1761.8186
    302,   12167.4092,   1522.62158,    1761.8186
    303,   12373.6367,   1522.62158,    1761.8186
    304,   12579.8633,   1522.62158,    1761.8186
    305,      11342.5,   1522.62158,    1761.8186
    306,   11548.7275,   1522.62158,    1761.8186
    307,   11754.9541,   1522.62158,    1761.8186
    308,   10517.5908,   1522.62158,    1761.8186
    309,   10723.8184,   1522.62158,    1761.8186
    310,   10930.0459,   1522.62158,    1761.8186
    311,   9692.68164,   1522.62158,    1761.8186
    312,   9898.90918,   1522.62158,    1761.8186
    313,   10105.1367,   1522.62158,    1761.8186
    314,   9280.22754,   1522.62158,    1761.8186
    315,   8867.77246,   1522.62158,    1761.8186
    316,   8042.86377,   1522.62158,    1761.8186
    317,   8249.09082,   1522.62158,    1761.8186
    318,   8455.31836,   1522.62158,    1761.8186
    319,   7217.95459,   1522.62158,    1761.8186
    320,   7424.18164,   1522.62158,    1761.8186
    321,   7630.40918,   1522.62158,    1761.8186
    322,   6393.04541,   1522.62158,    1761.8186
    323,   6599.27295,   1522.62158,    1761.8186
    324,       6805.5,   1522.62158,    1761.8186
    325,   5568.13623,   1522.62158,    1761.8186
    326,   5774.36377,   1522.62158,    1761.8186
    327,   5980.59082,   1522.62158,    1761.8186
    328,   4743.22705,   1522.62158,    1761.8186
    329,   4949.45459,   1522.62158,    1761.8186
    330,   5155.68164,   1522.62158,    1761.8186
    331,   3918.31812,   1522.62158,    1761.8186
    332,   4124.54541,   1522.62158,    1761.8186
    333,   4330.77295,   1522.62158,    1761.8186
    334,   3093.40918,   1522.62158,    1761.8186
    335,   3299.63647,   1522.62158,    1761.8186
    336,   3505.86353,   1522.62158,    1761.8186
    337,       2268.5,   1522.62158,    1761.8186
    338,   2474.72729,   1522.62158,    1761.8186
    339,   2680.95459,   1522.62158,    1761.8186
    340,   1443.59094,   1522.62158,    1761.8186
    341,   1649.81824,   1522.62158,    1761.8186
    342,   1856.04541,   1522.62158,    1761.8186
    343,   618.681824,   1522.62158,    1761.8186
    344,   824.909119,   1522.62158,    1761.8186
    345,   1031.13635,   1522.62158,    1761.8186
    346,    206.22728,   1522.62158,    1761.8186
    347,   17941.7734,   611.738403,    1337.1814
    348,   17116.8633,   611.738403,    1337.1814
    349,   17323.0918,   611.738403,    1337.1814
    350,   17529.3184,   611.738403,    1337.1814
    351,   16291.9541,   611.738403,    1337.1814
    352,   16498.1816,   611.738403,    1337.1814
    353,   16704.4082,   611.738403,    1337.1814
    354,   15467.0459,   611.738403,    1337.1814
    355,   15673.2725,   611.738403,    1337.1814
    356,      15879.5,   611.738403,    1337.1814
    357,   14642.1367,   611.738403,    1337.1814
    358,   14848.3633,   611.738403,    1337.1814
    359,   15054.5908,   611.738403,    1337.1814
    360,   13817.2275,   611.738403,    1337.1814
    361,   14023.4541,   611.738403,    1337.1814
    362,   14229.6816,   611.738403,    1337.1814
    363,   12992.3184,   611.738403,    1337.1814
    364,   13198.5459,   611.738403,    1337.1814
    365,   13404.7725,   611.738403,    1337.1814
    366,   12167.4092,   611.738403,    1337.1814
    367,   12373.6367,   611.738403,    1337.1814
    368,   12579.8633,   611.738403,    1337.1814
    369,      11342.5,   611.738403,    1337.1814
    370,   11548.7275,   611.738403,    1337.1814
    371,   11754.9541,   611.738403,    1337.1814
    372,   10517.5908,   611.738403,    1337.1814
    373,   10723.8184,   611.738403,    1337.1814
    374,   10930.0459,   611.738403,    1337.1814
    375,   9692.68164,   611.738403,    1337.1814
    376,   9898.90918,   611.738403,    1337.1814
    377,   10105.1367,   611.738403,    1337.1814
    378,   9280.22754,   611.738403,    1337.1814
    379,   8867.77246,   611.738403,    1337.1814
    380,   8042.86377,   611.738403,    1337.1814
    381,   8249.09082,   611.738403,    1337.1814
    382,   8455.31836,   611.738403,    1337.1814
    383,   7217.95459,   611.738403,    1337.1814
    384,   7424.18164,   611.738403,    1337.1814
    385,   7630.40918,   611.738403,    1337.1814
    386,   6393.04541,   611.738403,    1337.1814
    387,   6599.27295,   611.738403,    1337.1814
    388,       6805.5,   611.738403,    1337.1814
    389,   5568.13623,   611.738403,    1337.1814
    390,   5774.36377,   611.738403,    1337.1814
    391,   5980.59082,   611.738403,    1337.1814
    392,   4743.22705,   611.738403,    1337.1814
    393,   4949.45459,   611.738403,    1337.1814
    394,   5155.68164,   611.738403,    1337.1814
    395,   3918.31812,   611.738403,    1337.1814
    396,   4124.54541,   611.738403,    1337.1814
    397,   4330.77295,   611.738403,    1337.1814
    398,   3093.40918,   611.738403,    1337.1814
    399,   3299.63647,   611.738403,    1337.1814
    400,   3505.86353,   611.738403,    1337.1814
    401,       2268.5,   611.738403,    1337.1814
    402,   2474.72729,   611.738403,    1337.1814
    403,   2680.95459,   611.738403,    1337.1814
    404,   1443.59094,   611.738403,    1337.1814
    405,   1649.81824,   611.738403,    1337.1814
    406,   1856.04541,   611.738403,    1337.1814
    407,   618.681824,   611.738403,    1337.1814
    408,   824.909119,   611.738403,    1337.1814
    409,   1031.13635,   611.738403,    1337.1814
    410,    206.22728,   611.738403,    1337.1814
    411,       18148.,           0.,   185.399994
    412,       18148.,           0.,   370.799988
    413,       18148.,           0.,   556.200012
    414,       18148.,           0.,   741.599976
    415,   17941.7734,  -299.144806,   912.544128
    416,   17116.8633,  -299.144806,   912.544128
    417,   17323.0918,  -299.144806,   912.544128
    418,   17529.3184,  -299.144806,   912.544128
    419,   16291.9541,  -299.144806,   912.544128
    420,   16498.1816,  -299.144806,   912.544128
    421,   16704.4082,  -299.144806,   912.544128
    422,   15467.0459,  -299.144806,   912.544128
    423,   15673.2725,  -299.144806,   912.544128
    424,      15879.5,  -299.144806,   912.544128
    425,   14642.1367,  -299.144806,   912.544128
    426,   14848.3633,  -299.144806,   912.544128
    427,   15054.5908,  -299.144806,   912.544128
    428,   13817.2275,  -299.144806,   912.544128
    429,   14023.4541,  -299.144806,   912.544128
    430,   14229.6816,  -299.144806,   912.544128
    431,   12992.3184,  -299.144806,   912.544128
    432,   13198.5459,  -299.144806,   912.544128
    433,   13404.7725,  -299.144806,   912.544128
    434,   12167.4092,  -299.144806,   912.544128
    435,   12373.6367,  -299.144806,   912.544128
    436,   12579.8633,  -299.144806,   912.544128
    437,      11342.5,  -299.144806,   912.544128
    438,   11548.7275,  -299.144806,   912.544128
    439,   11754.9541,  -299.144806,   912.544128
    440,   10517.5908,  -299.144806,   912.544128
    441,   10723.8184,  -299.144806,   912.544128
    442,   10930.0459,  -299.144806,   912.544128
    443,   9692.68164,  -299.144806,   912.544128
    444,   9898.90918,  -299.144806,   912.544128
    445,   10105.1367,  -299.144806,   912.544128
    446,   9280.22754,  -299.144806,   912.544128
    447,   8867.77246,  -299.144806,   912.544128
    448,   8042.86377,  -299.144806,   912.544128
    449,   8249.09082,  -299.144806,   912.544128
    450,   8455.31836,  -299.144806,   912.544128
    451,   7217.95459,  -299.144806,   912.544128
    452,   7424.18164,  -299.144806,   912.544128
    453,   7630.40918,  -299.144806,   912.544128
    454,   6393.04541,  -299.144806,   912.544128
    455,   6599.27295,  -299.144806,   912.544128
    456,       6805.5,  -299.144806,   912.544128
    457,   5568.13623,  -299.144806,   912.544128
    458,   5774.36377,  -299.144806,   912.544128
    459,   5980.59082,  -299.144806,   912.544128
    460,   4743.22705,  -299.144806,   912.544128
    461,   4949.45459,  -299.144806,   912.544128
    462,   5155.68164,  -299.144806,   912.544128
    463,   3918.31812,  -299.144806,   912.544128
    464,   4124.54541,  -299.144806,   912.544128
    465,   4330.77295,  -299.144806,   912.544128
    466,   3093.40918,  -299.144806,   912.544128
    467,   3299.63647,  -299.144806,   912.544128
    468,   3505.86353,  -299.144806,   912.544128
    469,       2268.5,  -299.144806,   912.544128
    470,   2474.72729,  -299.144806,   912.544128
    471,   2680.95459,  -299.144806,   912.544128
    472,   1443.59094,  -299.144806,   912.544128
    473,   1649.81824,  -299.144806,   912.544128
    474,   1856.04541,  -299.144806,   912.544128
    475,   618.681824,  -299.144806,   912.544128
    476,   824.909119,  -299.144806,   912.544128
    477,   1031.13635,  -299.144806,   912.544128
    478,    206.22728,  -299.144806,   912.544128
    479,       13611.,   2134.36011,   620.548767
    480,       13611.,   2134.36011,   824.327515
    481,       13611.,   2134.36011,    1028.1062
    482,       13611.,   2134.36011,   1231.88501
    483,       13611.,   2134.36011,    1435.6637
    484,       13611.,   2134.36011,    1639.4425
    485,       13611.,   2134.36011,   1843.22119
    486,       13611.,   2134.36011,   208.384995
    487,       13611.,           0.,   185.399994
    488,       13611.,           0.,   370.799988
    489,       13611.,           0.,   556.200012
    490,       13611.,           0.,   741.599976
    491,        9074.,   2134.36011,   620.548767
    492,        9074.,   2134.36011,   824.327515
    493,        9074.,   2134.36011,    1028.1062
    494,        9074.,   2134.36011,   1231.88501
    495,        9074.,   2134.36011,    1435.6637
    496,        9074.,   2134.36011,    1639.4425
    497,        9074.,   2134.36011,   1843.22119
    498,        9074.,   2134.36011,   208.384995
    499,        9074.,           0.,   185.399994
    500,        9074.,           0.,   370.799988
    501,        9074.,           0.,   556.200012
    502,        9074.,           0.,   741.599976
    503,        4537.,   2134.36011,   620.548767
    504,        4537.,   2134.36011,   824.327515
    505,        4537.,   2134.36011,    1028.1062
    506,        4537.,   2134.36011,   1231.88501
    507,        4537.,   2134.36011,    1435.6637
    508,        4537.,   2134.36011,    1639.4425
    509,        4537.,   2134.36011,   1843.22119
    510,        4537.,   2134.36011,   208.384995
    511,        4537.,           0.,   185.399994
    512,        4537.,           0.,   370.799988
    513,        4537.,           0.,   556.200012
    514,        4537.,           0.,   741.599976
    515,           0.,   2134.36011,   620.548767
    516,           0.,   2134.36011,   824.327515
    517,           0.,   2134.36011,    1028.1062
    518,           0.,   2134.36011,   1231.88501
    519,           0.,   2134.36011,    1435.6637
    520,           0.,   2134.36011,    1639.4425
    521,           0.,   2134.36011,   1843.22119
    522,           0.,   2134.36011,   208.384995
    523,           0.,           0.,   185.399994
    524,           0.,           0.,   370.799988
    525,           0.,           0.,   556.200012
    526,           0.,           0.,   741.599976
    527,       18148.,    194.03273,   880.615479
    528,       18148.,    388.06546,   834.230896
    529,       18148.,   582.098206,   787.846375
    530,       18148.,    776.13092,   741.461792
    531,       18148.,   970.163635,   695.077271
    532,       18148.,   1164.19641,   648.692749
    533,       18148.,   1358.22913,   602.308167
    534,       18148.,   1552.26184,   555.923645
    535,       18148.,   1746.29456,   509.539093
    536,       18148.,   1940.32727,   463.154541
    537,       13611.,    194.03273,   880.615479
    538,       13611.,    388.06546,   834.230896
    539,       13611.,   582.098206,   787.846375
    540,       13611.,    776.13092,   741.461792
    541,       13611.,   970.163635,   695.077271
    542,       13611.,   1164.19641,   648.692749
    543,       13611.,   1358.22913,   602.308167
    544,       13611.,   1552.26184,   555.923645
    545,       13611.,   1746.29456,   509.539093
    546,       13611.,   1940.32727,   463.154541
    547,        9074.,    194.03273,   880.615479
    548,        9074.,    388.06546,   834.230896
    549,        9074.,   582.098206,   787.846375
    550,        9074.,    776.13092,   741.461792
    551,        9074.,   970.163635,   695.077271
    552,        9074.,   1164.19641,   648.692749
    553,        9074.,   1358.22913,   602.308167
    554,        9074.,   1552.26184,   555.923645
    555,        9074.,   1746.29456,   509.539093
    556,        9074.,   1940.32727,   463.154541
    557,        4537.,    194.03273,   880.615479
    558,        4537.,    388.06546,   834.230896
    559,        4537.,   582.098206,   787.846375
    560,        4537.,    776.13092,   741.461792
    561,        4537.,   970.163635,   695.077271
    562,        4537.,   1164.19641,   648.692749
    563,        4537.,   1358.22913,   602.308167
    564,        4537.,   1552.26184,   555.923645
    565,        4537.,   1746.29456,   509.539093
    566,        4537.,   1940.32727,   463.154541
    567,           0.,    194.03273,   880.615479
    568,           0.,    388.06546,   834.230896
    569,           0.,   582.098206,   787.846375
    570,           0.,    776.13092,   741.461792
    571,           0.,   970.163635,   695.077271
    572,           0.,   1164.19641,   648.692749
    573,           0.,   1358.22913,   602.308167
    574,           0.,   1552.26184,   555.923645
    575,           0.,   1746.29456,   509.539093
    576,           0.,   1940.32727,   463.154541
*Element, type=B31
1,   1, 141
2, 141,   2
3,   2, 142
4, 142, 143
5, 143,   3
 6,   4, 144
 7, 144, 145
 8, 145, 146
 9, 146,   1
10,   5, 147
11, 147,   2
12,   6, 148
13, 148, 149
14, 149, 150
15, 150,   4
16,   7, 151
17, 151, 152
18, 152, 153
19, 153,   6
20,   8, 154
21, 154, 155
22, 155, 156
23, 156,   7
24,   9, 157
25, 157, 158
26, 158, 159
27, 159,   8
28,  10, 160
29, 160, 161
30, 161, 162
31, 162,   9
32,  11, 163
33, 163, 164
34, 164, 165
35, 165,  10
36,  12, 166
37, 166, 167
38, 167, 168
39, 168,  11
40,  13, 169
41, 169, 170
42, 170, 171
43, 171,  12
44,  14, 172
45, 172, 173
46, 173, 174
47, 174,  13
48,  15, 175
49, 175,  14
50,  16, 176
51, 176,  15
52,  17, 177
53, 177, 178
54, 178, 179
55, 179,  16
56,  18, 180
57, 180, 181
58, 181, 182
59, 182,  17
60,  19, 183
61, 183, 184
62, 184, 185
63, 185,  18
64,  20, 186
65, 186, 187
66, 187, 188
67, 188,  19
68,  21, 189
69, 189, 190
70, 190, 191
71, 191,  20
72,  22, 192
73, 192, 193
74, 193, 194
75, 194,  21
76,  23, 195
77, 195, 196
78, 196, 197
79, 197,  22
80,  24, 198
81, 198, 199
82, 199, 200
83, 200,  23
84,  25, 201
85, 201, 202
86, 202, 203
87, 203,  24
88,  26, 204
89, 204, 205
90, 205, 206
91, 206,  25
92,  27, 207
93, 207,  26
94,  27, 208
95, 208, 209
96, 209,  28
 97,  29, 210
 98, 210, 211
 99, 211,   5
100,  30, 212
101, 212, 213
102, 213, 214
103, 214, 215
104, 215,  29
105,  31, 216
106, 216, 217
107, 217,  30
108,  32, 218
109, 218,  31
110,  33, 219
111, 219, 220
112, 220,  32
113,   9, 221
114, 221, 222
115, 222,  34
116,  35, 223
117, 223,   9
118,  36, 224
119, 224, 225
120, 225,  35
121,  37, 226
122, 226, 227
123, 227, 228
124, 228, 229
125, 229,  36
126,  38, 230
127, 230, 231
128, 231,  37
129,  39, 232
130, 232,  38
131,  40, 233
132, 233, 234
133, 234,  39
134,  15, 235
135, 235, 236
136, 236,  41
137,  42, 237
138, 237,  15
139,  43, 238
140, 238, 239
141, 239,  42
142,  44, 240
143, 240, 241
144, 241, 242
145, 242, 243
146, 243,  43
147,  45, 244
148, 244, 245
149, 245,  44
150,  46, 246
151, 246,  45
152,  47, 247
153, 247, 248
154, 248,  46
155,  21, 249
156, 249, 250
157, 250,  48
158,  49, 251
159, 251,  21
160,  50, 252
161, 252, 253
162, 253,  49
163,  51, 254
164, 254, 255
165, 255, 256
166, 256, 257
167, 257,  50
168,  52, 258
169, 258, 259
170, 259,  51
171,  53, 260
172, 260,  52
173,  54, 261
174, 261, 262
175, 262,  53
176,  55, 263
177, 263,  27
178,  56, 264
179, 264, 265
180, 265,  55
181,  57, 266
182, 266, 267
183, 267, 268
184, 268, 269
185, 269,  56
186,  58, 270
187, 270, 271
188, 271,  57
189,  59, 272
190, 272,  58
191,  60, 273
192, 273, 274
193, 274,  59
194,  61, 275
195, 275, 276
196, 276, 277
197, 277, 278
198, 278, 279
199, 279, 280
200, 280, 281
201, 281,   5
202,  62, 282
203, 282,  61
204,  63, 283
205, 283,  29
206,  64, 284
207, 284, 285
208, 285, 286
209, 286,  63
210,  65, 287
211, 287, 288
212, 288, 289
213, 289,  64
214,  66, 290
215, 290, 291
216, 291, 292
217, 292,  65
218,  67, 293
219, 293, 294
220, 294, 295
221, 295,  66
222,  36, 296
223, 296, 297
224, 297, 298
225, 298,  67
226,  68, 299
227, 299, 300
228, 300, 301
229, 301,  36
230,  69, 302
231, 302, 303
232, 303, 304
233, 304,  68
234,  70, 305
235, 305, 306
236, 306, 307
237, 307,  69
238,  71, 308
239, 308, 309
240, 309, 310
241, 310,  70
242,  72, 311
243, 311, 312
244, 312, 313
245, 313,  71
246,  43, 314
247, 314,  72
248,  73, 315
249, 315,  43
250,  74, 316
251, 316, 317
252, 317, 318
253, 318,  73
254,  75, 319
255, 319, 320
256, 320, 321
257, 321,  74
258,  76, 322
259, 322, 323
260, 323, 324
261, 324,  75
262,  77, 325
263, 325, 326
264, 326, 327
265, 327,  76
266,  50, 328
267, 328, 329
268, 329, 330
269, 330,  77
270,  78, 331
271, 331, 332
272, 332, 333
273, 333,  50
274,  79, 334
275, 334, 335
276, 335, 336
277, 336,  78
278,  80, 337
279, 337, 338
280, 338, 339
281, 339,  79
282,  81, 340
283, 340, 341
284, 341, 342
285, 342,  80
286,  82, 343
287, 343, 344
288, 344, 345
289, 345,  81
290,  56, 346
291, 346,  82
292,  83, 347
293, 347,  30
294,  84, 348
295, 348, 349
296, 349, 350
297, 350,  83
298,  85, 351
299, 351, 352
300, 352, 353
301, 353,  84
302,  86, 354
303, 354, 355
304, 355, 356
305, 356,  85
306,  87, 357
307, 357, 358
308, 358, 359
309, 359,  86
310,  37, 360
311, 360, 361
312, 361, 362
313, 362,  87
314,  88, 363
315, 363, 364
316, 364, 365
317, 365,  37
318,  89, 366
319, 366, 367
320, 367, 368
321, 368,  88
322,  90, 369
323, 369, 370
324, 370, 371
325, 371,  89
326,  91, 372
327, 372, 373
328, 373, 374
329, 374,  90
330,  92, 375
331, 375, 376
332, 376, 377
333, 377,  91
334,  44, 378
335, 378,  92
336,  93, 379
337, 379,  44
338,  94, 380
339, 380, 381
340, 381, 382
341, 382,  93
342,  95, 383
343, 383, 384
344, 384, 385
345, 385,  94
346,  96, 386
347, 386, 387
348, 387, 388
349, 388,  95
350,  97, 389
351, 389, 390
352, 390, 391
353, 391,  96
354,  51, 392
355, 392, 393
356, 393, 394
357, 394,  97
358,  98, 395
359, 395, 396
360, 396, 397
361, 397,  51
362,  99, 398
363, 398, 399
364, 399, 400
365, 400,  98
366, 100, 401
367, 401, 402
368, 402, 403
369, 403,  99
370, 101, 404
371, 404, 405
372, 405, 406
373, 406, 100
374, 102, 407
375, 407, 408
376, 408, 409
377, 409, 101
378,  57, 410
379, 410, 102
380, 103,  31
381, 104, 411
382, 411, 412
383, 412, 413
384, 413, 414
385, 414, 103
386, 105, 415
387, 415,  32
388, 106, 416
389, 416, 417
390, 417, 418
391, 418, 105
392, 107, 419
393, 419, 420
394, 420, 421
395, 421, 106
396, 108, 422
397, 422, 423
398, 423, 424
399, 424, 107
400, 109, 425
401, 425, 426
402, 426, 427
403, 427, 108
404,  39, 428
405, 428, 429
406, 429, 430
407, 430, 109
408, 110, 431
409, 431, 432
410, 432, 433
411, 433,  39
412, 111, 434
413, 434, 435
414, 435, 436
415, 436, 110
416, 112, 437
417, 437, 438
418, 438, 439
419, 439, 111
420, 113, 440
421, 440, 441
422, 441, 442
423, 442, 112
424, 114, 443
425, 443, 444
426, 444, 445
427, 445, 113
428,  46, 446
429, 446, 114
430, 115, 447
431, 447,  46
432, 116, 448
433, 448, 449
434, 449, 450
435, 450, 115
436, 117, 451
437, 451, 452
438, 452, 453
439, 453, 116
440, 118, 454
441, 454, 455
442, 455, 456
443, 456, 117
444, 119, 457
445, 457, 458
446, 458, 459
447, 459, 118
448,  53, 460
449, 460, 461
450, 461, 462
451, 462, 119
452, 120, 463
453, 463, 464
454, 464, 465
455, 465,  53
456, 121, 466
457, 466, 467
458, 467, 468
459, 468, 120
460, 122, 469
461, 469, 470
462, 470, 471
463, 471, 121
464, 123, 472
465, 472, 473
466, 473, 474
467, 474, 122
468, 124, 475
469, 475, 476
470, 476, 477
471, 477, 123
472,  59, 478
473, 478, 124
474, 125, 479
475, 479, 480
476, 480, 481
477, 481, 482
478, 482, 483
479, 483, 484
480, 484, 485
481, 485,  35
482, 126, 486
483, 486, 125
484, 127,  38
485, 128, 487
486, 487, 488
487, 488, 489
488, 489, 490
489, 490, 127
490, 129, 491
491, 491, 492
492, 492, 493
493, 493, 494
494, 494, 495
495, 495, 496
496, 496, 497
497, 497,  42
498, 130, 498
499, 498, 129
500, 131,  45
501, 132, 499
502, 499, 500
503, 500, 501
504, 501, 502
505, 502, 131
506, 133, 503
507, 503, 504
508, 504, 505
509, 505, 506
510, 506, 507
511, 507, 508
512, 508, 509
513, 509,  49
514, 134, 510
515, 510, 133
516, 135,  52
517, 136, 511
518, 511, 512
519, 512, 513
520, 513, 514
521, 514, 135
522, 137, 515
523, 515, 516
524, 516, 517
525, 517, 518
526, 518, 519
527, 519, 520
528, 520, 521
529, 521,  55
530, 138, 522
531, 522, 137
532, 139,  58
533, 140, 523
534, 523, 524
535, 524, 525
536, 525, 526
537, 526, 139
538, 103, 527
539, 527, 528
540, 528, 529
541, 529, 530
542, 530, 531
543, 531, 532
544, 532, 533
545, 533, 534
546, 534, 535
547, 535, 536
548, 536,  61
549, 127, 537
550, 537, 538
551, 538, 539
552, 539, 540
553, 540, 541
554, 541, 542
555, 542, 543
556, 543, 544
557, 544, 545
558, 545, 546
559, 546, 125
560, 131, 547
561, 547, 548
562, 548, 549
563, 549, 550
564, 550, 551
565, 551, 552
566, 552, 553
567, 553, 554
568, 554, 555
569, 555, 556
570, 556, 129
571, 135, 557
572, 557, 558
573, 558, 559
574, 559, 560
575, 560, 561
576, 561, 562
577, 562, 563
578, 563, 564
579, 564, 565
580, 565, 566
581, 566, 133
582, 139, 567
583, 567, 568
584, 568, 569
585, 569, 570
586, 570, 571
587, 571, 572
588, 572, 573
589, 573, 574
590, 574, 575
591, 575, 576
592, 576, 137
*Nset, nset=P2
   2,   3,   5,   9,  15,  21,  27,  28,  29,  30,  31,  32,  33,  34,  35,  36
  37,  38,  39,  40,  41,  42,  43,  44,  45,  46,  47,  48,  49,  50,  51,  52
  53,  54,  55,  56,  57,  58,  59,  60, 142, 143, 147, 208, 209, 210, 211, 212
 213, 214, 215, 216, 217, 218, 219, 220, 221, 222, 223, 224, 225, 226, 227, 228
 229, 230, 231, 232, 233, 234, 235, 236, 237, 238, 239, 240, 241, 242, 243, 244
 245, 246, 247, 248, 249, 250, 251, 252, 253, 254, 255, 256, 257, 258, 259, 260
 261, 262, 263, 264, 265, 266, 267, 268, 269, 270, 271, 272, 273, 274
*Elset, elset=P2
   3,   4,   5,  10,  11,  94,  95,  96,  97,  98,  99, 100, 101, 102, 103, 104
 105, 106, 107, 108, 109, 110, 111, 112, 113, 114, 115, 116, 117, 118, 119, 120
 121, 122, 123, 124, 125, 126, 127, 128, 129, 130, 131, 132, 133, 134, 135, 136
 137, 138, 139, 140, 141, 142, 143, 144, 145, 146, 147, 148, 149, 150, 151, 152
 153, 154, 155, 156, 157, 158, 159, 160, 161, 162, 163, 164, 165, 166, 167, 168
 169, 170, 171, 172, 173, 174, 175, 176, 177, 178, 179, 180, 181, 182, 183, 184
 185, 186, 187, 188, 189, 190, 191, 192, 193
*Nset, nset=P3
  31,  38,  45,  52,  58, 103, 104, 127, 128, 131, 132, 135, 136, 139, 140, 411
 412, 413, 414, 487, 488, 489, 490, 499, 500, 501, 502, 511, 512, 513, 514, 523
 524, 525, 526
*Elset, elset=P3
 380, 381, 382, 383, 384, 385, 484, 485, 486, 487, 488, 489, 500, 501, 502, 503
 504, 505, 516, 517, 518, 519, 520, 521, 532, 533, 534, 535, 536, 537
*Nset, nset=P4
   5,  35,  42,  49,  55,  61,  62, 125, 126, 129, 130, 133, 134, 137, 138, 275
 276, 277, 278, 279, 280, 281, 282, 479, 480, 481, 482, 483, 484, 485, 486, 491
 492, 493, 494, 495, 496, 497, 498, 503, 504, 505, 506, 507, 508, 509, 510, 515
 516, 517, 518, 519, 520, 521, 522
*Elset, elset=P4
 194, 195, 196, 197, 198, 199, 200, 201, 202, 203, 474, 475, 476, 477, 478, 479
 480, 481, 482, 483, 490, 491, 492, 493, 494, 495, 496, 497, 498, 499, 506, 507
 508, 509, 510, 511, 512, 513, 514, 515, 522, 523, 524, 525, 526, 527, 528, 529
 530, 531
*Nset, nset=P5
   1,   2,   4,   6,   7,   8,   9,  10,  11,  12,  13,  14,  15,  16,  17,  18
  19,  20,  21,  22,  23,  24,  25,  26,  27,  29,  30,  32,  36,  37,  39,  43
  44,  46,  50,  51,  53,  56,  57,  59,  63,  64,  65,  66,  67,  68,  69,  70
  71,  72,  73,  74,  75,  76,  77,  78,  79,  80,  81,  82,  83,  84,  85,  86
  87,  88,  89,  90,  91,  92,  93,  94,  95,  96,  97,  98,  99, 100, 101, 102
 105, 106, 107, 108, 109, 110, 111, 112, 113, 114, 115, 116, 117, 118, 119, 120
 121, 122, 123, 124, 141, 144, 145, 146, 148, 149, 150, 151, 152, 153, 154, 155
 156, 157, 158, 159, 160, 161, 162, 163, 164, 165, 166, 167, 168, 169, 170, 171
 172, 173, 174, 175, 176, 177, 178, 179, 180, 181, 182, 183, 184, 185, 186, 187
 188, 189, 190, 191, 192, 193, 194, 195, 196, 197, 198, 199, 200, 201, 202, 203
 204, 205, 206, 207, 283, 284, 285, 286, 287, 288, 289, 290, 291, 292, 293, 294
 295, 296, 297, 298, 299, 300, 301, 302, 303, 304, 305, 306, 307, 308, 309, 310
 311, 312, 313, 314, 315, 316, 317, 318, 319, 320, 321, 322, 323, 324, 325, 326
 327, 328, 329, 330, 331, 332, 333, 334, 335, 336, 337, 338, 339, 340, 341, 342
 343, 344, 345, 346, 347, 348, 349, 350, 351, 352, 353, 354, 355, 356, 357, 358
 359, 360, 361, 362, 363, 364, 365, 366, 367, 368, 369, 370, 371, 372, 373, 374
 375, 376, 377, 378, 379, 380, 381, 382, 383, 384, 385, 386, 387, 388, 389, 390
 391, 392, 393, 394, 395, 396, 397, 398, 399, 400, 401, 402, 403, 404, 405, 406
 407, 408, 409, 410, 415, 416, 417, 418, 419, 420, 421, 422, 423, 424, 425, 426
 427, 428, 429, 430, 431, 432, 433, 434, 435, 436, 437, 438, 439, 440, 441, 442
 443, 444, 445, 446, 447, 448, 449, 450, 451, 452, 453, 454, 455, 456, 457, 458
 459, 460, 461, 462, 463, 464, 465, 466, 467, 468, 469, 470, 471, 472, 473, 474
 475, 476, 477, 478
*Elset, elset=P5
   1,   2,   6,   7,   8,   9,  12,  13,  14,  15,  16,  17,  18,  19,  20,  21
  22,  23,  24,  25,  26,  27,  28,  29,  30,  31,  32,  33,  34,  35,  36,  37
  38,  39,  40,  41,  42,  43,  44,  45,  46,  47,  48,  49,  50,  51,  52,  53
  54,  55,  56,  57,  58,  59,  60,  61,  62,  63,  64,  65,  66,  67,  68,  69
  70,  71,  72,  73,  74,  75,  76,  77,  78,  79,  80,  81,  82,  83,  84,  85
  86,  87,  88,  89,  90,  91,  92,  93, 204, 205, 206, 207, 208, 209, 210, 211
 212, 213, 214, 215, 216, 217, 218, 219, 220, 221, 222, 223, 224, 225, 226, 227
 228, 229, 230, 231, 232, 233, 234, 235, 236, 237, 238, 239, 240, 241, 242, 243
 244, 245, 246, 247, 248, 249, 250, 251, 252, 253, 254, 255, 256, 257, 258, 259
 260, 261, 262, 263, 264, 265, 266, 267, 268, 269, 270, 271, 272, 273, 274, 275
 276, 277, 278, 279, 280, 281, 282, 283, 284, 285, 286, 287, 288, 289, 290, 291
 292, 293, 294, 295, 296, 297, 298, 299, 300, 301, 302, 303, 304, 305, 306, 307
 308, 309, 310, 311, 312, 313, 314, 315, 316, 317, 318, 319, 320, 321, 322, 323
 324, 325, 326, 327, 328, 329, 330, 331, 332, 333, 334, 335, 336, 337, 338, 339
 340, 341, 342, 343, 344, 345, 346, 347, 348, 349, 350, 351, 352, 353, 354, 355
 356, 357, 358, 359, 360, 361, 362, 363, 364, 365, 366, 367, 368, 369, 370, 371
 372, 373, 374, 375, 376, 377, 378, 379, 386, 387, 388, 389, 390, 391, 392, 393
 394, 395, 396, 397, 398, 399, 400, 401, 402, 403, 404, 405, 406, 407, 408, 409
 410, 411, 412, 413, 414, 415, 416, 417, 418, 419, 420, 421, 422, 423, 424, 425
 426, 427, 428, 429, 430, 431, 432, 433, 434, 435, 436, 437, 438, 439, 440, 441
 442, 443, 444, 445, 446, 447, 448, 449, 450, 451, 452, 453, 454, 455, 456, 457
 458, 459, 460, 461, 462, 463, 464, 465, 466, 467, 468, 469, 470, 471, 472, 473
*Nset, nset=P6
  61, 103, 125, 127, 129, 131, 133, 135, 137, 139, 527, 528, 529, 530, 531, 532
 533, 534, 535, 536, 537, 538, 539, 540, 541, 542, 543, 544, 545, 546, 547, 548
 549, 550, 551, 552, 553, 554, 555, 556, 557, 558, 559, 560, 561, 562, 563, 564
 565, 566, 567, 568, 569, 570, 571, 572, 573, 574, 575, 576
*Elset, elset=P6, generate
 538,  592,    1
** Section: P5  Profile: C100
*Beam Section, elset=P5, material=S235JR, poisson = 0.3, temperature=GRADIENTS, section=ARBITRARY
5, 29.1607, 30., 29.1607, 48., 4.
-16.8393, 48., 4.
-16.8393, -48., 4.
29.1607, -48., 4.
29.1607, -30., 4.
0.,0.906351,0.422525
** Section: P2  Profile: C125
*Beam Section, elset=P2, material=S355JR, poisson = 0.3, temperature=GRADIENTS, section=ARBITRARY
5, 36.9745, 37.5, 36.9745, 60.5, 4.
-21.5255, 60.5, 4.
-21.5255, -60.5, 4.
36.9745, -60.5, 4.
36.9745, -37.5, 4.
1.,0.,0.
** Section: P4  Profile: C125
*Beam Section, elset=P4, material=S235JR, poisson = 0.3, temperature=GRADIENTS, section=ARBITRARY
5, 36.9745, 37.5, 36.9745, 60.5, 4.
-21.5255, 60.5, 4.
-21.5255, -60.5, 4.
36.9745, -60.5, 4.
36.9745, -37.5, 4.
1.,0.,0.
** Section: P3  Profile: C125
*Beam Section, elset=P3, material=S235JR, poisson = 0.3, temperature=GRADIENTS, section=ARBITRARY
5, 36.9745, 37.5, 36.9745, 60.5, 4.
-21.5255, 60.5, 4.
-21.5255, -60.5, 4.
36.9745, -60.5, 4.
36.9745, -37.5, 4.
1.,0.,0.
** Section: P6  Profile: C50
*Beam Section, elset=P6, material=S235JR, poisson = 0.3, temperature=GRADIENTS, section=ARBITRARY
3, 16.875, 22.5, -5.625, 22.5, 5.
-5.625, -22.5, 5.
16.875, -22.5, 5.
1.,0.,0.
*End Part
**  
**
** ASSEMBLY
**
*Assembly, name=Assembly
**  
*Instance, name=FRAME, part=SteelFrame
*End Instance
**  
*Nset, nset=BASES, instance=FRAME
  62, 104, 126, 128, 130, 132, 134, 136, 138, 140
*Nset, nset=CONTACT_ROW_1, instance=FRAME
  39,  53, 105, 106, 107, 108, 109, 110, 111, 112, 113, 114, 115, 116, 117, 118
 119, 120, 121, 122, 123, 124
*Nset, nset=CONTACT_ROW_2, instance=FRAME
  37,  51,  83,  84,  85,  86,  87,  88,  89,  90,  91,  92,  93,  94,  95,  96
  97,  98,  99, 100, 101, 102
*Nset, nset=CONTACT_ROW_3, instance=FRAME
 36, 50, 63, 64, 65, 66, 67, 68, 69, 70, 71, 72, 73, 74, 75, 76
 77, 78, 79, 80, 81, 82
*Nset, nset=CONTACT_ROW_4, instance=FRAME
  1,  4,  6,  7,  8,  9, 10, 11, 12, 13, 14, 16, 17, 18, 19, 20
 21, 22, 23, 24, 25, 26
*End Assembly
** 
** MATERIALS
** 
*Material, name=S235JR
*Density
 7.85e-09,
*Elastic
210000., 0.3
*Material, name=S355JR
*Density
 7.85e-09,
*Elastic
210000., 0.3
** 
** BOUNDARY CONDITIONS
** 
** Name: GroundFixity Type: Symmetry/Antisymmetry/Encastre
*Boundary
BASES, ENCASTRE
** ----------------------------------------------------------------
** 
** STEP: D
** 
*Step, name=D, nlgeom=NO
*Static
1., 1., 1e-05, 1.
** 
** LOADS
** 
** Name: D_Contact_1   Type: Concentrated force
*Cload, op=NEW
CONTACT_ROW_1, 2, 0.
CONTACT_ROW_1, 3, -126.993
** Name: D_Contact_2   Type: Concentrated force
*Cload, op=NEW
CONTACT_ROW_2, 2, 0.
CONTACT_ROW_2, 3, -126.993
** Name: D_Contact_3   Type: Concentrated force
*Cload, op=NEW
CONTACT_ROW_3, 2, 0.
CONTACT_ROW_3, 3, -126.993
** Name: D_Contact_4   Type: Concentrated force
*Cload, op=NEW
CONTACT_ROW_4, 2, 0.
CONTACT_ROW_4, 3, -126.993
** Name: D_SteelGravity   Type: Gravity
*Dload, op=NEW
, GRAV, 9810., 0., 0., -1.
** 
** OUTPUT REQUESTS
** 
*Restart, write, frequency=0
** 
** FIELD OUTPUT: Nodal
** 
*Output, field, frequency=99999
*Node Output
RF, RM, U
** 
** FIELD OUTPUT: Section_P2
** 
*Element Output, elset=FRAME.P2, directions=YES
1, 2, 3, 4, 5, 6, 7, 8, 9, 10, 11
S, SF
** 
** FIELD OUTPUT: Section_P3
** 
*Element Output, elset=FRAME.P3, directions=YES
1, 2, 3, 4, 5, 6, 7, 8, 9, 10, 11
S, SF
** 
** FIELD OUTPUT: Section_P4
** 
*Element Output, elset=FRAME.P4, directions=YES
1, 2, 3, 4, 5, 6, 7, 8, 9, 10, 11
S, SF
** 
** FIELD OUTPUT: Section_P5
** 
*Element Output, elset=FRAME.P5, directions=YES
1, 2, 3, 4, 5, 6, 7, 8, 9, 10, 11
S, SF
** 
** FIELD OUTPUT: Section_P6
** 
*Element Output, elset=FRAME.P6, directions=YES
1, 2, 3, 4, 5, 6, 7
S, SF
** 
** HISTORY OUTPUT: Energy
** 
*Output, history
*Energy Output
ALLSE, ALLWK
*End Step
** ----------------------------------------------------------------
** 
** STEP: S
** 
*Step, name=S, nlgeom=NO
*Static
1., 1., 1e-05, 1.
** 
** LOADS
** 
** Name: D_Contact_1   Type: Concentrated force
*Cload, op=NEW
** Name: D_Contact_2   Type: Concentrated force
*Cload, op=NEW
** Name: D_Contact_3   Type: Concentrated force
*Cload, op=NEW
** Name: D_Contact_4   Type: Concentrated force
*Cload, op=NEW
** Name: D_SteelGravity   Type: Gravity
*Dload, op=NEW
** Name: S_Contact_1   Type: Concentrated force
*Cload, op=NEW
CONTACT_ROW_1, 2, 0.
CONTACT_ROW_1, 3, -733.2
** Name: S_Contact_2   Type: Concentrated force
*Cload, op=NEW
CONTACT_ROW_2, 2, 0.
CONTACT_ROW_2, 3, -733.2
** Name: S_Contact_3   Type: Concentrated force
*Cload, op=NEW
CONTACT_ROW_3, 2, 0.
CONTACT_ROW_3, 3, -733.2
** Name: S_Contact_4   Type: Concentrated force
*Cload, op=NEW
CONTACT_ROW_4, 2, 0.
CONTACT_ROW_4, 3, -733.2
** 
** OUTPUT REQUESTS
** 
*Restart, write, frequency=0
** 
** FIELD OUTPUT: Nodal
** 
*Output, field, frequency=99999
*Node Output
RF, RM, U
** 
** FIELD OUTPUT: Section_P2
** 
*Element Output, elset=FRAME.P2, directions=YES
1, 2, 3, 4, 5, 6, 7, 8, 9, 10, 11
S, SF
** 
** FIELD OUTPUT: Section_P3
** 
*Element Output, elset=FRAME.P3, directions=YES
1, 2, 3, 4, 5, 6, 7, 8, 9, 10, 11
S, SF
** 
** FIELD OUTPUT: Section_P4
** 
*Element Output, elset=FRAME.P4, directions=YES
1, 2, 3, 4, 5, 6, 7, 8, 9, 10, 11
S, SF
** 
** FIELD OUTPUT: Section_P5
** 
*Element Output, elset=FRAME.P5, directions=YES
1, 2, 3, 4, 5, 6, 7, 8, 9, 10, 11
S, SF
** 
** FIELD OUTPUT: Section_P6
** 
*Element Output, elset=FRAME.P6, directions=YES
1, 2, 3, 4, 5, 6, 7
S, SF
** 
** HISTORY OUTPUT: Energy
** 
*Output, history
*Energy Output
ALLSE, ALLWK
*End Step
** ----------------------------------------------------------------
** 
** STEP: W
** 
*Step, name=W, nlgeom=NO
*Static
1., 1., 1e-05, 1.
** 
** LOADS
** 
** Name: S_Contact_1   Type: Concentrated force
*Cload, op=NEW
** Name: S_Contact_2   Type: Concentrated force
*Cload, op=NEW
** Name: S_Contact_3   Type: Concentrated force
*Cload, op=NEW
** Name: S_Contact_4   Type: Concentrated force
*Cload, op=NEW
** Name: W_Contact_1   Type: Concentrated force
*Cload, op=NEW
CONTACT_ROW_1, 2, 133.071
CONTACT_ROW_1, 3, -285.449
** Name: W_Contact_2   Type: Concentrated force
*Cload, op=NEW
CONTACT_ROW_2, 2, 133.071
CONTACT_ROW_2, 3, -285.449
** Name: W_Contact_3   Type: Concentrated force
*Cload, op=NEW
CONTACT_ROW_3, 2, 133.071
CONTACT_ROW_3, 3, -285.449
** Name: W_Contact_4   Type: Concentrated force
*Cload, op=NEW
CONTACT_ROW_4, 2, 133.071
CONTACT_ROW_4, 3, -285.449
** 
** OUTPUT REQUESTS
** 
*Restart, write, frequency=0
** 
** FIELD OUTPUT: Nodal
** 
*Output, field, frequency=99999
*Node Output
RF, RM, U
** 
** FIELD OUTPUT: Section_P2
** 
*Element Output, elset=FRAME.P2, directions=YES
1, 2, 3, 4, 5, 6, 7, 8, 9, 10, 11
S, SF
** 
** FIELD OUTPUT: Section_P3
** 
*Element Output, elset=FRAME.P3, directions=YES
1, 2, 3, 4, 5, 6, 7, 8, 9, 10, 11
S, SF
** 
** FIELD OUTPUT: Section_P4
** 
*Element Output, elset=FRAME.P4, directions=YES
1, 2, 3, 4, 5, 6, 7, 8, 9, 10, 11
S, SF
** 
** FIELD OUTPUT: Section_P5
** 
*Element Output, elset=FRAME.P5, directions=YES
1, 2, 3, 4, 5, 6, 7, 8, 9, 10, 11
S, SF
** 
** FIELD OUTPUT: Section_P6
** 
*Element Output, elset=FRAME.P6, directions=YES
1, 2, 3, 4, 5, 6, 7
S, SF
** 
** HISTORY OUTPUT: Energy
** 
*Output, history
*Energy Output
ALLSE, ALLWK
*End Step
** ----------------------------------------------------------------
** 
** STEP: D_07S
** 
*Step, name=D_07S, nlgeom=NO
*Static
1., 1., 1e-05, 1.
** 
** LOADS
** 
** Name: D_07S_Contact_1   Type: Concentrated force
*Cload, op=NEW
CONTACT_ROW_1, 2, 0.
CONTACT_ROW_1, 3, -640.233
** Name: D_07S_Contact_2   Type: Concentrated force
*Cload, op=NEW
CONTACT_ROW_2, 2, 0.
CONTACT_ROW_2, 3, -640.233
** Name: D_07S_Contact_3   Type: Concentrated force
*Cload, op=NEW
CONTACT_ROW_3, 2, 0.
CONTACT_ROW_3, 3, -640.233
** Name: D_07S_Contact_4   Type: Concentrated force
*Cload, op=NEW
CONTACT_ROW_4, 2, 0.
CONTACT_ROW_4, 3, -640.233
** Name: D_07S_SteelGravity   Type: Gravity
*Dload, op=NEW
, GRAV, 9810., 0., 0., -1.
** Name: W_Contact_1   Type: Concentrated force
*Cload, op=NEW
** Name: W_Contact_2   Type: Concentrated force
*Cload, op=NEW
** Name: W_Contact_3   Type: Concentrated force
*Cload, op=NEW
** Name: W_Contact_4   Type: Concentrated force
*Cload, op=NEW
** 
** OUTPUT REQUESTS
** 
*Restart, write, frequency=0
** 
** FIELD OUTPUT: Nodal
** 
*Output, field, frequency=99999
*Node Output
RF, RM, U
** 
** FIELD OUTPUT: Section_P2
** 
*Element Output, elset=FRAME.P2, directions=YES
1, 2, 3, 4, 5, 6, 7, 8, 9, 10, 11
S, SF
** 
** FIELD OUTPUT: Section_P3
** 
*Element Output, elset=FRAME.P3, directions=YES
1, 2, 3, 4, 5, 6, 7, 8, 9, 10, 11
S, SF
** 
** FIELD OUTPUT: Section_P4
** 
*Element Output, elset=FRAME.P4, directions=YES
1, 2, 3, 4, 5, 6, 7, 8, 9, 10, 11
S, SF
** 
** FIELD OUTPUT: Section_P5
** 
*Element Output, elset=FRAME.P5, directions=YES
1, 2, 3, 4, 5, 6, 7, 8, 9, 10, 11
S, SF
** 
** FIELD OUTPUT: Section_P6
** 
*Element Output, elset=FRAME.P6, directions=YES
1, 2, 3, 4, 5, 6, 7
S, SF
** 
** HISTORY OUTPUT: Energy
** 
*Output, history
*Energy Output
ALLSE, ALLWK
*End Step
** ----------------------------------------------------------------
** 
** STEP: D_S
** 
*Step, name=D_S, nlgeom=NO
*Static
1., 1., 1e-05, 1.
** 
** LOADS
** 
** Name: D_07S_Contact_1   Type: Concentrated force
*Cload, op=NEW
** Name: D_07S_Contact_2   Type: Concentrated force
*Cload, op=NEW
** Name: D_07S_Contact_3   Type: Concentrated force
*Cload, op=NEW
** Name: D_07S_Contact_4   Type: Concentrated force
*Cload, op=NEW
** Name: D_07S_SteelGravity   Type: Gravity
*Dload, op=NEW
** Name: D_S_Contact_1   Type: Concentrated force
*Cload, op=NEW
CONTACT_ROW_1, 2, 0.
CONTACT_ROW_1, 3, -860.193
** Name: D_S_Contact_2   Type: Concentrated force
*Cload, op=NEW
CONTACT_ROW_2, 2, 0.
CONTACT_ROW_2, 3, -860.193
** Name: D_S_Contact_3   Type: Concentrated force
*Cload, op=NEW
CONTACT_ROW_3, 2, 0.
CONTACT_ROW_3, 3, -860.193
** Name: D_S_Contact_4   Type: Concentrated force
*Cload, op=NEW
CONTACT_ROW_4, 2, 0.
CONTACT_ROW_4, 3, -860.193
** Name: D_S_SteelGravity   Type: Gravity
*Dload, op=NEW
, GRAV, 9810., 0., 0., -1.
** 
** OUTPUT REQUESTS
** 
*Restart, write, frequency=0
** 
** FIELD OUTPUT: Nodal
** 
*Output, field, frequency=99999
*Node Output
RF, RM, U
** 
** FIELD OUTPUT: Section_P2
** 
*Element Output, elset=FRAME.P2, directions=YES
1, 2, 3, 4, 5, 6, 7, 8, 9, 10, 11
S, SF
** 
** FIELD OUTPUT: Section_P3
** 
*Element Output, elset=FRAME.P3, directions=YES
1, 2, 3, 4, 5, 6, 7, 8, 9, 10, 11
S, SF
** 
** FIELD OUTPUT: Section_P4
** 
*Element Output, elset=FRAME.P4, directions=YES
1, 2, 3, 4, 5, 6, 7, 8, 9, 10, 11
S, SF
** 
** FIELD OUTPUT: Section_P5
** 
*Element Output, elset=FRAME.P5, directions=YES
1, 2, 3, 4, 5, 6, 7, 8, 9, 10, 11
S, SF
** 
** FIELD OUTPUT: Section_P6
** 
*Element Output, elset=FRAME.P6, directions=YES
1, 2, 3, 4, 5, 6, 7
S, SF
** 
** HISTORY OUTPUT: Energy
** 
*Output, history
*Energy Output
ALLSE, ALLWK
*End Step
** ----------------------------------------------------------------
** 
** STEP: D_S_W
** 
*Step, name=D_S_W, nlgeom=NO
*Static
1., 1., 1e-05, 1.
** 
** LOADS
** 
** Name: D_S_Contact_1   Type: Concentrated force
*Cload, op=NEW
** Name: D_S_Contact_2   Type: Concentrated force
*Cload, op=NEW
** Name: D_S_Contact_3   Type: Concentrated force
*Cload, op=NEW
** Name: D_S_Contact_4   Type: Concentrated force
*Cload, op=NEW
** Name: D_S_SteelGravity   Type: Gravity
*Dload, op=NEW
** Name: D_S_W_Contact_1   Type: Concentrated force
*Cload, op=NEW
CONTACT_ROW_1, 2, 133.071
CONTACT_ROW_1, 3, -1145.64
** Name: D_S_W_Contact_2   Type: Concentrated force
*Cload, op=NEW
CONTACT_ROW_2, 2, 133.071
CONTACT_ROW_2, 3, -1145.64
** Name: D_S_W_Contact_3   Type: Concentrated force
*Cload, op=NEW
CONTACT_ROW_3, 2, 133.071
CONTACT_ROW_3, 3, -1145.64
** Name: D_S_W_Contact_4   Type: Concentrated force
*Cload, op=NEW
CONTACT_ROW_4, 2, 133.071
CONTACT_ROW_4, 3, -1145.64
** Name: D_S_W_SteelGravity   Type: Gravity
*Dload, op=NEW
, GRAV, 9810., 0., 0., -1.
** 
** OUTPUT REQUESTS
** 
*Restart, write, frequency=0
** 
** FIELD OUTPUT: Nodal
** 
*Output, field, frequency=99999
*Node Output
RF, RM, U
** 
** FIELD OUTPUT: Section_P2
** 
*Element Output, elset=FRAME.P2, directions=YES
1, 2, 3, 4, 5, 6, 7, 8, 9, 10, 11
S, SF
** 
** FIELD OUTPUT: Section_P3
** 
*Element Output, elset=FRAME.P3, directions=YES
1, 2, 3, 4, 5, 6, 7, 8, 9, 10, 11
S, SF
** 
** FIELD OUTPUT: Section_P4
** 
*Element Output, elset=FRAME.P4, directions=YES
1, 2, 3, 4, 5, 6, 7, 8, 9, 10, 11
S, SF
** 
** FIELD OUTPUT: Section_P5
** 
*Element Output, elset=FRAME.P5, directions=YES
1, 2, 3, 4, 5, 6, 7, 8, 9, 10, 11
S, SF
** 
** FIELD OUTPUT: Section_P6
** 
*Element Output, elset=FRAME.P6, directions=YES
1, 2, 3, 4, 5, 6, 7
S, SF
** 
** HISTORY OUTPUT: Energy
** 
*Output, history
*Energy Output
ALLSE, ALLWK
*End Step
** ----------------------------------------------------------------
** 
** STEP: D_S_mW
** 
*Step, name=D_S_mW, nlgeom=NO
*Static
1., 1., 1e-05, 1.
** 
** LOADS
** 
** Name: D_S_W_Contact_1   Type: Concentrated force
*Cload, op=NEW
** Name: D_S_W_Contact_2   Type: Concentrated force
*Cload, op=NEW
** Name: D_S_W_Contact_3   Type: Concentrated force
*Cload, op=NEW
** Name: D_S_W_Contact_4   Type: Concentrated force
*Cload, op=NEW
** Name: D_S_W_SteelGravity   Type: Gravity
*Dload, op=NEW
** Name: D_S_mW_Contact_1   Type: Concentrated force
*Cload, op=NEW
CONTACT_ROW_1, 2, -133.071
CONTACT_ROW_1, 3, -574.744
** Name: D_S_mW_Contact_2   Type: Concentrated force
*Cload, op=NEW
CONTACT_ROW_2, 2, -133.071
CONTACT_ROW_2, 3, -574.744
** Name: D_S_mW_Contact_3   Type: Concentrated force
*Cload, op=NEW
CONTACT_ROW_3, 2, -133.071
CONTACT_ROW_3, 3, -574.744
** Name: D_S_mW_Contact_4   Type: Concentrated force
*Cload, op=NEW
CONTACT_ROW_4, 2, -133.071
CONTACT_ROW_4, 3, -574.744
** Name: D_S_mW_SteelGravity   Type: Gravity
*Dload, op=NEW
, GRAV, 9810., 0., 0., -1.
** 
** OUTPUT REQUESTS
** 
*Restart, write, frequency=0
** 
** FIELD OUTPUT: Nodal
** 
*Output, field, frequency=99999
*Node Output
RF, RM, U
** 
** FIELD OUTPUT: Section_P2
** 
*Element Output, elset=FRAME.P2, directions=YES
1, 2, 3, 4, 5, 6, 7, 8, 9, 10, 11
S, SF
** 
** FIELD OUTPUT: Section_P3
** 
*Element Output, elset=FRAME.P3, directions=YES
1, 2, 3, 4, 5, 6, 7, 8, 9, 10, 11
S, SF
** 
** FIELD OUTPUT: Section_P4
** 
*Element Output, elset=FRAME.P4, directions=YES
1, 2, 3, 4, 5, 6, 7, 8, 9, 10, 11
S, SF
** 
** FIELD OUTPUT: Section_P5
** 
*Element Output, elset=FRAME.P5, directions=YES
1, 2, 3, 4, 5, 6, 7, 8, 9, 10, 11
S, SF
** 
** FIELD OUTPUT: Section_P6
** 
*Element Output, elset=FRAME.P6, directions=YES
1, 2, 3, 4, 5, 6, 7
S, SF
** 
** HISTORY OUTPUT: Energy
** 
*Output, history
*Energy Output
ALLSE, ALLWK
*End Step
** ----------------------------------------------------------------
** 
** STEP: C09D_W
** 
*Step, name=C09D_W, nlgeom=NO
*Static
1., 1., 1e-05, 1.
** 
** LOADS
** 
** Name: C09D_W_Contact_1   Type: Concentrated force
*Cload, op=NEW
CONTACT_ROW_1, 2, 133.071
CONTACT_ROW_1, 3, -399.742
** Name: C09D_W_Contact_2   Type: Concentrated force
*Cload, op=NEW
CONTACT_ROW_2, 2, 133.071
CONTACT_ROW_2, 3, -399.742
** Name: C09D_W_Contact_3   Type: Concentrated force
*Cload, op=NEW
CONTACT_ROW_3, 2, 133.071
CONTACT_ROW_3, 3, -399.742
** Name: C09D_W_Contact_4   Type: Concentrated force
*Cload, op=NEW
CONTACT_ROW_4, 2, 133.071
CONTACT_ROW_4, 3, -399.742
** Name: C09D_W_SteelGravity   Type: Gravity
*Dload, op=NEW
, GRAV, 8829., 0., 0., -1.
** Name: D_S_mW_Contact_1   Type: Concentrated force
*Cload, op=NEW
** Name: D_S_mW_Contact_2   Type: Concentrated force
*Cload, op=NEW
** Name: D_S_mW_Contact_3   Type: Concentrated force
*Cload, op=NEW
** Name: D_S_mW_Contact_4   Type: Concentrated force
*Cload, op=NEW
** Name: D_S_mW_SteelGravity   Type: Gravity
*Dload, op=NEW
** 
** OUTPUT REQUESTS
** 
*Restart, write, frequency=0
** 
** FIELD OUTPUT: Nodal
** 
*Output, field, frequency=99999
*Node Output
RF, RM, U
** 
** FIELD OUTPUT: Section_P2
** 
*Element Output, elset=FRAME.P2, directions=YES
1, 2, 3, 4, 5, 6, 7, 8, 9, 10, 11
S, SF
** 
** FIELD OUTPUT: Section_P3
** 
*Element Output, elset=FRAME.P3, directions=YES
1, 2, 3, 4, 5, 6, 7, 8, 9, 10, 11
S, SF
** 
** FIELD OUTPUT: Section_P4
** 
*Element Output, elset=FRAME.P4, directions=YES
1, 2, 3, 4, 5, 6, 7, 8, 9, 10, 11
S, SF
** 
** FIELD OUTPUT: Section_P5
** 
*Element Output, elset=FRAME.P5, directions=YES
1, 2, 3, 4, 5, 6, 7, 8, 9, 10, 11
S, SF
** 
** FIELD OUTPUT: Section_P6
** 
*Element Output, elset=FRAME.P6, directions=YES
1, 2, 3, 4, 5, 6, 7
S, SF
** 
** HISTORY OUTPUT: Energy
** 
*Output, history
*Energy Output
ALLSE, ALLWK
*End Step
** ----------------------------------------------------------------
** 
** STEP: C09D_mW
** 
*Step, name=C09D_mW, nlgeom=NO
*Static
1., 1., 1e-05, 1.
** 
** LOADS
** 
** Name: C09D_W_Contact_1   Type: Concentrated force
*Cload, op=NEW
** Name: C09D_W_Contact_2   Type: Concentrated force
*Cload, op=NEW
** Name: C09D_W_Contact_3   Type: Concentrated force
*Cload, op=NEW
** Name: C09D_W_Contact_4   Type: Concentrated force
*Cload, op=NEW
** Name: C09D_W_SteelGravity   Type: Gravity
*Dload, op=NEW
** Name: C09D_mW_Contact_1   Type: Concentrated force
*Cload, op=NEW
CONTACT_ROW_1, 2, -133.071
CONTACT_ROW_1, 3, 171.156
** Name: C09D_mW_Contact_2   Type: Concentrated force
*Cload, op=NEW
CONTACT_ROW_2, 2, -133.071
CONTACT_ROW_2, 3, 171.156
** Name: C09D_mW_Contact_3   Type: Concentrated force
*Cload, op=NEW
CONTACT_ROW_3, 2, -133.071
CONTACT_ROW_3, 3, 171.156
** Name: C09D_mW_Contact_4   Type: Concentrated force
*Cload, op=NEW
CONTACT_ROW_4, 2, -133.071
CONTACT_ROW_4, 3, 171.156
** Name: C09D_mW_SteelGravity   Type: Gravity
*Dload, op=NEW
, GRAV, 8829., 0., 0., -1.
** 
** OUTPUT REQUESTS
** 
*Restart, write, frequency=0
** 
** FIELD OUTPUT: Nodal
** 
*Output, field, frequency=99999
*Node Output
RF, RM, U
** 
** FIELD OUTPUT: Section_P2
** 
*Element Output, elset=FRAME.P2, directions=YES
1, 2, 3, 4, 5, 6, 7, 8, 9, 10, 11
S, SF
** 
** FIELD OUTPUT: Section_P3
** 
*Element Output, elset=FRAME.P3, directions=YES
1, 2, 3, 4, 5, 6, 7, 8, 9, 10, 11
S, SF
** 
** FIELD OUTPUT: Section_P4
** 
*Element Output, elset=FRAME.P4, directions=YES
1, 2, 3, 4, 5, 6, 7, 8, 9, 10, 11
S, SF
** 
** FIELD OUTPUT: Section_P5
** 
*Element Output, elset=FRAME.P5, directions=YES
1, 2, 3, 4, 5, 6, 7, 8, 9, 10, 11
S, SF
** 
** FIELD OUTPUT: Section_P6
** 
*Element Output, elset=FRAME.P6, directions=YES
1, 2, 3, 4, 5, 6, 7
S, SF
** 
** HISTORY OUTPUT: Energy
** 
*Output, history
*Energy Output
ALLSE, ALLWK
*End Step
