*Heading
 Solar support; see assumptions and run metadata; N mm tonne s
** Job name: Solar_009_two_eaves Model name: SolarSupport
** Generated by: Abaqus/CAE 2024
*Preprint, echo=NO, model=NO, history=NO, contact=NO
**
** PARTS
**
*Part, name=SteelFrame
*Node
      1,   17735.5449,   2888.94629,   2398.77441
      2,       18148.,   2888.94629,   2398.77441
      3,       18148.,   2134.36011,        2047.
      4,       18148.,           0.,        1052.
      5,       18148.,  -754.586365,   700.225464
      6,   17735.5449,  -754.586365,   700.225464
      7,   16910.6367,  -754.586365,   700.225464
      8,   16085.7275,  -754.586365,   700.225464
      9,   15260.8184,  -754.586365,   700.225464
     10,   14435.9092,  -754.586365,   700.225464
     11,       13611.,  -754.586365,   700.225464
     12,   12786.0908,  -754.586365,   700.225464
     13,   11961.1816,  -754.586365,   700.225464
     14,   11136.2725,  -754.586365,   700.225464
     15,   10311.3633,  -754.586365,   700.225464
     16,    9486.4541,  -754.586365,   700.225464
     17,        9074.,  -754.586365,   700.225464
     18,    8661.5459,  -754.586365,   700.225464
     19,   7836.63623,  -754.586365,   700.225464
     20,   7011.72705,  -754.586365,   700.225464
     21,   6186.81836,  -754.586365,   700.225464
     22,   5361.90918,  -754.586365,   700.225464
     23,        4537.,  -754.586365,   700.225464
     24,   3712.09082,  -754.586365,   700.225464
     25,   2887.18188,  -754.586365,   700.225464
     26,   2062.27271,  -754.586365,   700.225464
     27,   1237.36365,  -754.586365,   700.225464
     28,   412.454559,  -754.586365,   700.225464
     29,           0.,  -754.586365,   700.225464
     30,           0.,           0.,        1052.
     31,           0.,           0.,         927.
     32,           0.,           0.,           0.
     33,   16910.6367,   2888.94629,   2398.77441
     34,       18148.,   2134.36011,   416.769989
     35,       18148.,   2134.36011,           0.
     36,       18148.,           0.,         927.
     37,       18148.,           0.,           0.
     38,       13611.,           0.,        1052.
     39,        9074.,           0.,        1052.
     40,        4537.,           0.,        1052.
     41,           0.,   2134.36011,        2047.
     42,           0.,   2134.36011,   416.769989
     43,   16085.7275,   2888.94629,   2398.77441
     44,   15260.8184,   2888.94629,   2398.77441
     45,   14435.9092,   2888.94629,   2398.77441
     46,       13611.,   2888.94629,   2398.77441
     47,   12786.0908,   2888.94629,   2398.77441
     48,   11961.1816,   2888.94629,   2398.77441
     49,   11136.2725,   2888.94629,   2398.77441
     50,   10311.3633,   2888.94629,   2398.77441
     51,    9486.4541,   2888.94629,   2398.77441
     52,        9074.,   2888.94629,   2398.77441
     53,    8661.5459,   2888.94629,   2398.77441
     54,   7836.63623,   2888.94629,   2398.77441
     55,   7011.72705,   2888.94629,   2398.77441
     56,   6186.81836,   2888.94629,   2398.77441
     57,   5361.90918,   2888.94629,   2398.77441
     58,        4537.,   2888.94629,   2398.77441
     59,   3712.09082,   2888.94629,   2398.77441
     60,   2887.18188,   2888.94629,   2398.77441
     61,   2062.27271,   2888.94629,   2398.77441
     62,   1237.36365,   2888.94629,   2398.77441
     63,   412.454559,   2888.94629,   2398.77441
     64,           0.,   2888.94629,   2398.77441
     65,       13611.,           0.,         927.
     66,       13611.,           0.,           0.
     67,        9074.,           0.,         927.
     68,        9074.,           0.,           0.
     69,        4537.,           0.,         927.
     70,        4537.,           0.,           0.
     71,           0.,   2134.36011,           0.
     72,       13611.,   2134.36011,        2047.
     73,        9074.,   2134.36011,        2047.
     74,        4537.,   2134.36011,        2047.
     75,       13611.,   2134.36011,   416.769989
     76,        9074.,   2134.36011,   416.769989
     77,        4537.,   2134.36011,   416.769989
     78,       13611.,   2134.36011,           0.
     79,        9074.,   2134.36011,           0.
     80,        4537.,   2134.36011,           0.
     81,   17941.7734,   2888.94629,   2398.77441
     82,       18148.,   2323.00659,    2134.9436
     83,       18148.,   2511.65308,   2222.88721
     84,       18148.,    2700.2998,   2310.83081
     85,       18148.,   177.863327,   1134.91663
     86,       18148.,   355.726654,   1217.83337
     87,       18148.,   533.590027,      1300.75
     88,       18148.,   711.453308,   1383.66663
     89,       18148.,    889.31665,   1466.58337
     90,       18148.,   1067.18005,       1549.5
     91,       18148.,   1245.04333,   1632.41663
     92,       18148.,   1422.90662,   1715.33337
     93,       18148.,   1600.77002,      1798.25
     94,       18148.,    1778.6333,   1881.16663
     95,       18148.,    1956.4967,   1964.08337
     96,       18148.,  -565.939819,   788.169128
     97,       18148.,  -377.293182,   876.112732
     98,       18148.,  -188.646591,   964.056396
     99,   17941.7734,  -754.586365,   700.225464
    100,   17116.8633,  -754.586365,   700.225464
    101,   17323.0918,  -754.586365,   700.225464
    102,   17529.3184,  -754.586365,   700.225464
    103,   16291.9541,  -754.586365,   700.225464
    104,   16498.1816,  -754.586365,   700.225464
    105,   16704.4082,  -754.586365,   700.225464
    106,   15467.0459,  -754.586365,   700.225464
    107,   15673.2725,  -754.586365,   700.225464
    108,      15879.5,  -754.586365,   700.225464
    109,   14642.1367,  -754.586365,   700.225464
    110,   14848.3633,  -754.586365,   700.225464
    111,   15054.5908,  -754.586365,   700.225464
    112,   13817.2275,  -754.586365,   700.225464
    113,   14023.4541,  -754.586365,   700.225464
    114,   14229.6816,  -754.586365,   700.225464
    115,   12992.3184,  -754.586365,   700.225464
    116,   13198.5459,  -754.586365,   700.225464
    117,   13404.7725,  -754.586365,   700.225464
    118,   12167.4092,  -754.586365,   700.225464
    119,   12373.6367,  -754.586365,   700.225464
    120,   12579.8633,  -754.586365,   700.225464
    121,      11342.5,  -754.586365,   700.225464
    122,   11548.7275,  -754.586365,   700.225464
    123,   11754.9541,  -754.586365,   700.225464
    124,   10517.5908,  -754.586365,   700.225464
    125,   10723.8184,  -754.586365,   700.225464
    126,   10930.0459,  -754.586365,   700.225464
    127,   9692.68164,  -754.586365,   700.225464
    128,   9898.90918,  -754.586365,   700.225464
    129,   10105.1367,  -754.586365,   700.225464
    130,   9280.22754,  -754.586365,   700.225464
    131,   8867.77246,  -754.586365,   700.225464
    132,   8042.86377,  -754.586365,   700.225464
    133,   8249.09082,  -754.586365,   700.225464
    134,   8455.31836,  -754.586365,   700.225464
    135,   7217.95459,  -754.586365,   700.225464
    136,   7424.18164,  -754.586365,   700.225464
    137,   7630.40918,  -754.586365,   700.225464
    138,   6393.04541,  -754.586365,   700.225464
    139,   6599.27295,  -754.586365,   700.225464
    140,       6805.5,  -754.586365,   700.225464
    141,   5568.13623,  -754.586365,   700.225464
    142,   5774.36377,  -754.586365,   700.225464
    143,   5980.59082,  -754.586365,   700.225464
    144,   4743.22705,  -754.586365,   700.225464
    145,   4949.45459,  -754.586365,   700.225464
    146,   5155.68164,  -754.586365,   700.225464
    147,   3918.31812,  -754.586365,   700.225464
    148,   4124.54541,  -754.586365,   700.225464
    149,   4330.77295,  -754.586365,   700.225464
    150,   3093.40918,  -754.586365,   700.225464
    151,   3299.63647,  -754.586365,   700.225464
    152,   3505.86353,  -754.586365,   700.225464
    153,       2268.5,  -754.586365,   700.225464
    154,   2474.72729,  -754.586365,   700.225464
    155,   2680.95459,  -754.586365,   700.225464
    156,   1443.59094,  -754.586365,   700.225464
    157,   1649.81824,  -754.586365,   700.225464
    158,   1856.04541,  -754.586365,   700.225464
    159,   618.681824,  -754.586365,   700.225464
    160,   824.909119,  -754.586365,   700.225464
    161,   1031.13635,  -754.586365,   700.225464
    162,    206.22728,  -754.586365,   700.225464
    163,           0.,  -565.939819,   788.169128
    164,           0.,  -377.293182,   876.112732
    165,           0.,  -188.646591,   964.056396
    166,           0.,           0.,   185.399994
    167,           0.,           0.,   370.799988
    168,           0.,           0.,   556.200012
    169,           0.,           0.,   741.599976
    170,   17116.8633,   2888.94629,   2398.77441
    171,   17323.0918,   2888.94629,   2398.77441
    172,   17529.3184,   2888.94629,   2398.77441
    173,       18148.,   2134.36011,   620.548767
    174,       18148.,   2134.36011,   824.327515
    175,       18148.,   2134.36011,    1028.1062
    176,       18148.,   2134.36011,   1231.88501
    177,       18148.,   2134.36011,    1435.6637
    178,       18148.,   2134.36011,    1639.4425
    179,       18148.,   2134.36011,   1843.22119
    180,       18148.,   2134.36011,   208.384995
    181,       18148.,           0.,   185.399994
    182,       18148.,           0.,   370.799988
    183,       18148.,           0.,   556.200012
    184,       18148.,           0.,   741.599976
    185,       13611.,  -565.939819,   788.169128
    186,       13611.,  -377.293182,   876.112732
    187,       13611.,  -188.646591,   964.056396
    188,        9074.,  -565.939819,   788.169128
    189,        9074.,  -377.293182,   876.112732
    190,        9074.,  -188.646591,   964.056396
    191,        4537.,  -565.939819,   788.169128
    192,        4537.,  -377.293182,   876.112732
    193,        4537.,  -188.646591,   964.056396
    194,           0.,   177.863327,   1134.91663
    195,           0.,   355.726654,   1217.83337
    196,           0.,   533.590027,      1300.75
    197,           0.,   711.453308,   1383.66663
    198,           0.,    889.31665,   1466.58337
    199,           0.,   1067.18005,       1549.5
    200,           0.,   1245.04333,   1632.41663
    201,           0.,   1422.90662,   1715.33337
    202,           0.,   1600.77002,      1798.25
    203,           0.,    1778.6333,   1881.16663
    204,           0.,    1956.4967,   1964.08337
    205,           0.,    194.03273,   880.615479
    206,           0.,    388.06546,   834.230896
    207,           0.,   582.098206,   787.846375
    208,           0.,    776.13092,   741.461792
    209,           0.,   970.163635,   695.077271
    210,           0.,   1164.19641,   648.692749
    211,           0.,   1358.22913,   602.308167
    212,           0.,   1552.26184,   555.923645
    213,           0.,   1746.29456,   509.539093
    214,           0.,   1940.32727,   463.154541
    215,   16291.9541,   2888.94629,   2398.77441
    216,   16498.1816,   2888.94629,   2398.77441
    217,   16704.4082,   2888.94629,   2398.77441
    218,   15467.0459,   2888.94629,   2398.77441
    219,   15673.2725,   2888.94629,   2398.77441
    220,      15879.5,   2888.94629,   2398.77441
    221,   14642.1367,   2888.94629,   2398.77441
    222,   14848.3633,   2888.94629,   2398.77441
    223,   15054.5908,   2888.94629,   2398.77441
    224,   13817.2275,   2888.94629,   2398.77441
    225,   14023.4541,   2888.94629,   2398.77441
    226,   14229.6816,   2888.94629,   2398.77441
    227,   12992.3184,   2888.94629,   2398.77441
    228,   13198.5459,   2888.94629,   2398.77441
    229,   13404.7725,   2888.94629,   2398.77441
    230,   12167.4092,   2888.94629,   2398.77441
    231,   12373.6367,   2888.94629,   2398.77441
    232,   12579.8633,   2888.94629,   2398.77441
    233,      11342.5,   2888.94629,   2398.77441
    234,   11548.7275,   2888.94629,   2398.77441
    235,   11754.9541,   2888.94629,   2398.77441
    236,   10517.5908,   2888.94629,   2398.77441
    237,   10723.8184,   2888.94629,   2398.77441
    238,   10930.0459,   2888.94629,   2398.77441
    239,   9692.68164,   2888.94629,   2398.77441
    240,   9898.90918,   2888.94629,   2398.77441
    241,   10105.1367,   2888.94629,   2398.77441
    242,   9280.22754,   2888.94629,   2398.77441
    243,   8867.77246,   2888.94629,   2398.77441
    244,   8042.86377,   2888.94629,   2398.77441
    245,   8249.09082,   2888.94629,   2398.77441
    246,   8455.31836,   2888.94629,   2398.77441
    247,   7217.95459,   2888.94629,   2398.77441
    248,   7424.18164,   2888.94629,   2398.77441
    249,   7630.40918,   2888.94629,   2398.77441
    250,   6393.04541,   2888.94629,   2398.77441
    251,   6599.27295,   2888.94629,   2398.77441
    252,       6805.5,   2888.94629,   2398.77441
    253,   5568.13623,   2888.94629,   2398.77441
    254,   5774.36377,   2888.94629,   2398.77441
    255,   5980.59082,   2888.94629,   2398.77441
    256,   4743.22705,   2888.94629,   2398.77441
    257,   4949.45459,   2888.94629,   2398.77441
    258,   5155.68164,   2888.94629,   2398.77441
    259,   3918.31812,   2888.94629,   2398.77441
    260,   4124.54541,   2888.94629,   2398.77441
    261,   4330.77295,   2888.94629,   2398.77441
    262,   3093.40918,   2888.94629,   2398.77441
    263,   3299.63647,   2888.94629,   2398.77441
    264,   3505.86353,   2888.94629,   2398.77441
    265,       2268.5,   2888.94629,   2398.77441
    266,   2474.72729,   2888.94629,   2398.77441
    267,   2680.95459,   2888.94629,   2398.77441
    268,   1443.59094,   2888.94629,   2398.77441
    269,   1649.81824,   2888.94629,   2398.77441
    270,   1856.04541,   2888.94629,   2398.77441
    271,   618.681824,   2888.94629,   2398.77441
    272,   824.909119,   2888.94629,   2398.77441
    273,   1031.13635,   2888.94629,   2398.77441
    274,    206.22728,   2888.94629,   2398.77441
    275,           0.,   2323.00659,    2134.9436
    276,           0.,   2511.65308,   2222.88721
    277,           0.,    2700.2998,   2310.83081
    278,       18148.,    194.03273,   880.615479
    279,       18148.,    388.06546,   834.230896
    280,       18148.,   582.098206,   787.846375
    281,       18148.,    776.13092,   741.461792
    282,       18148.,   970.163635,   695.077271
    283,       18148.,   1164.19641,   648.692749
    284,       18148.,   1358.22913,   602.308167
    285,       18148.,   1552.26184,   555.923645
    286,       18148.,   1746.29456,   509.539093
    287,       18148.,   1940.32727,   463.154541
    288,       13611.,           0.,   185.399994
    289,       13611.,           0.,   370.799988
    290,       13611.,           0.,   556.200012
    291,       13611.,           0.,   741.599976
    292,        9074.,           0.,   185.399994
    293,        9074.,           0.,   370.799988
    294,        9074.,           0.,   556.200012
    295,        9074.,           0.,   741.599976
    296,        4537.,           0.,   185.399994
    297,        4537.,           0.,   370.799988
    298,        4537.,           0.,   556.200012
    299,        4537.,           0.,   741.599976
    300,           0.,   2134.36011,   620.548767
    301,           0.,   2134.36011,   824.327515
    302,           0.,   2134.36011,    1028.1062
    303,           0.,   2134.36011,   1231.88501
    304,           0.,   2134.36011,    1435.6637
    305,           0.,   2134.36011,    1639.4425
    306,           0.,   2134.36011,   1843.22119
    307,           0.,   2134.36011,   208.384995
    308,       13611.,   2323.00659,    2134.9436
    309,       13611.,   2511.65308,   2222.88721
    310,       13611.,    2700.2998,   2310.83081
    311,       13611.,   177.863327,   1134.91663
    312,       13611.,   355.726654,   1217.83337
    313,       13611.,   533.590027,      1300.75
    314,       13611.,   711.453308,   1383.66663
    315,       13611.,    889.31665,   1466.58337
    316,       13611.,   1067.18005,       1549.5
    317,       13611.,   1245.04333,   1632.41663
    318,       13611.,   1422.90662,   1715.33337
    319,       13611.,   1600.77002,      1798.25
    320,       13611.,    1778.6333,   1881.16663
    321,       13611.,    1956.4967,   1964.08337
    322,        9074.,   2323.00659,    2134.9436
    323,        9074.,   2511.65308,   2222.88721
    324,        9074.,    2700.2998,   2310.83081
    325,        9074.,   177.863327,   1134.91663
    326,        9074.,   355.726654,   1217.83337
    327,        9074.,   533.590027,      1300.75
    328,        9074.,   711.453308,   1383.66663
    329,        9074.,    889.31665,   1466.58337
    330,        9074.,   1067.18005,       1549.5
    331,        9074.,   1245.04333,   1632.41663
    332,        9074.,   1422.90662,   1715.33337
    333,        9074.,   1600.77002,      1798.25
    334,        9074.,    1778.6333,   1881.16663
    335,        9074.,    1956.4967,   1964.08337
    336,        4537.,   2323.00659,    2134.9436
    337,        4537.,   2511.65308,   2222.88721
    338,        4537.,    2700.2998,   2310.83081
    339,        4537.,   177.863327,   1134.91663
    340,        4537.,   355.726654,   1217.83337
    341,        4537.,   533.590027,      1300.75
    342,        4537.,   711.453308,   1383.66663
    343,        4537.,    889.31665,   1466.58337
    344,        4537.,   1067.18005,       1549.5
    345,        4537.,   1245.04333,   1632.41663
    346,        4537.,   1422.90662,   1715.33337
    347,        4537.,   1600.77002,      1798.25
    348,        4537.,    1778.6333,   1881.16663
    349,        4537.,    1956.4967,   1964.08337
    350,       13611.,    194.03273,   880.615479
    351,       13611.,    388.06546,   834.230896
    352,       13611.,   582.098206,   787.846375
    353,       13611.,    776.13092,   741.461792
    354,       13611.,   970.163635,   695.077271
    355,       13611.,   1164.19641,   648.692749
    356,       13611.,   1358.22913,   602.308167
    357,       13611.,   1552.26184,   555.923645
    358,       13611.,   1746.29456,   509.539093
    359,       13611.,   1940.32727,   463.154541
    360,        9074.,    194.03273,   880.615479
    361,        9074.,    388.06546,   834.230896
    362,        9074.,   582.098206,   787.846375
    363,        9074.,    776.13092,   741.461792
    364,        9074.,   970.163635,   695.077271
    365,        9074.,   1164.19641,   648.692749
    366,        9074.,   1358.22913,   602.308167
    367,        9074.,   1552.26184,   555.923645
    368,        9074.,   1746.29456,   509.539093
    369,        9074.,   1940.32727,   463.154541
    370,        4537.,    194.03273,   880.615479
    371,        4537.,    388.06546,   834.230896
    372,        4537.,   582.098206,   787.846375
    373,        4537.,    776.13092,   741.461792
    374,        4537.,   970.163635,   695.077271
    375,        4537.,   1164.19641,   648.692749
    376,        4537.,   1358.22913,   602.308167
    377,        4537.,   1552.26184,   555.923645
    378,        4537.,   1746.29456,   509.539093
    379,        4537.,   1940.32727,   463.154541
    380,       13611.,   2134.36011,   620.548767
    381,       13611.,   2134.36011,   824.327515
    382,       13611.,   2134.36011,    1028.1062
    383,       13611.,   2134.36011,   1231.88501
    384,       13611.,   2134.36011,    1435.6637
    385,       13611.,   2134.36011,    1639.4425
    386,       13611.,   2134.36011,   1843.22119
    387,       13611.,   2134.36011,   208.384995
    388,        9074.,   2134.36011,   620.548767
    389,        9074.,   2134.36011,   824.327515
    390,        9074.,   2134.36011,    1028.1062
    391,        9074.,   2134.36011,   1231.88501
    392,        9074.,   2134.36011,    1435.6637
    393,        9074.,   2134.36011,    1639.4425
    394,        9074.,   2134.36011,   1843.22119
    395,        9074.,   2134.36011,   208.384995
    396,        4537.,   2134.36011,   620.548767
    397,        4537.,   2134.36011,   824.327515
    398,        4537.,   2134.36011,    1028.1062
    399,        4537.,   2134.36011,   1231.88501
    400,        4537.,   2134.36011,    1435.6637
    401,        4537.,   2134.36011,    1639.4425
    402,        4537.,   2134.36011,   1843.22119
    403,        4537.,   2134.36011,   208.384995
*Element, type=B31
1,  1, 81
2, 81,  2
3,  3, 82
4, 82, 83
5, 83, 84
6, 84,  2
 7,  4, 85
 8, 85, 86
 9, 86, 87
10, 87, 88
11, 88, 89
12, 89, 90
13, 90, 91
14, 91, 92
15, 92, 93
16, 93, 94
17, 94, 95
18, 95,  3
19,  5, 96
20, 96, 97
21, 97, 98
22, 98,  4
23,  6, 99
24, 99,  5
25,   7, 100
26, 100, 101
27, 101, 102
28, 102,   6
29,   8, 103
30, 103, 104
31, 104, 105
32, 105,   7
33,   9, 106
34, 106, 107
35, 107, 108
36, 108,   8
37,  10, 109
38, 109, 110
39, 110, 111
40, 111,   9
41,  11, 112
42, 112, 113
43, 113, 114
44, 114,  10
45,  12, 115
46, 115, 116
47, 116, 117
48, 117,  11
49,  13, 118
50, 118, 119
51, 119, 120
52, 120,  12
53,  14, 121
54, 121, 122
55, 122, 123
56, 123,  13
57,  15, 124
58, 124, 125
59, 125, 126
60, 126,  14
61,  16, 127
62, 127, 128
63, 128, 129
64, 129,  15
65,  17, 130
66, 130,  16
67,  18, 131
68, 131,  17
69,  19, 132
70, 132, 133
71, 133, 134
72, 134,  18
73,  20, 135
74, 135, 136
75, 136, 137
76, 137,  19
77,  21, 138
78, 138, 139
79, 139, 140
80, 140,  20
81,  22, 141
82, 141, 142
83, 142, 143
84, 143,  21
85,  23, 144
86, 144, 145
87, 145, 146
88, 146,  22
89,  24, 147
90, 147, 148
91, 148, 149
92, 149,  23
93,  25, 150
94, 150, 151
95, 151, 152
96, 152,  24
 97,  26, 153
 98, 153, 154
 99, 154, 155
100, 155,  25
101,  27, 156
102, 156, 157
103, 157, 158
104, 158,  26
105,  28, 159
106, 159, 160
107, 160, 161
108, 161,  27
109,  29, 162
110, 162,  28
111,  29, 163
112, 163, 164
113, 164, 165
114, 165,  30
115, 31, 30
116,  32, 166
117, 166, 167
118, 167, 168
119, 168, 169
120, 169,  31
121,  33, 170
122, 170, 171
123, 171, 172
124, 172,   1
125,  34, 173
126, 173, 174
127, 174, 175
128, 175, 176
129, 176, 177
130, 177, 178
131, 178, 179
132, 179,   3
133,  35, 180
134, 180,  34
135, 36,  4
136,  37, 181
137, 181, 182
138, 182, 183
139, 183, 184
140, 184,  36
141,  11, 185
142, 185, 186
143, 186, 187
144, 187,  38
145,  17, 188
146, 188, 189
147, 189, 190
148, 190,  39
149,  23, 191
150, 191, 192
151, 192, 193
152, 193,  40
153,  30, 194
154, 194, 195
155, 195, 196
156, 196, 197
157, 197, 198
158, 198, 199
159, 199, 200
160, 200, 201
161, 201, 202
162, 202, 203
163, 203, 204
164, 204,  41
165,  31, 205
166, 205, 206
167, 206, 207
168, 207, 208
169, 208, 209
170, 209, 210
171, 210, 211
172, 211, 212
173, 212, 213
174, 213, 214
175, 214,  42
176,  43, 215
177, 215, 216
178, 216, 217
179, 217,  33
180,  44, 218
181, 218, 219
182, 219, 220
183, 220,  43
184,  45, 221
185, 221, 222
186, 222, 223
187, 223,  44
188,  46, 224
189, 224, 225
190, 225, 226
191, 226,  45
192,  47, 227
193, 227, 228
194, 228, 229
195, 229,  46
196,  48, 230
197, 230, 231
198, 231, 232
199, 232,  47
200,  49, 233
201, 233, 234
202, 234, 235
203, 235,  48
204,  50, 236
205, 236, 237
206, 237, 238
207, 238,  49
208,  51, 239
209, 239, 240
210, 240, 241
211, 241,  50
212,  52, 242
213, 242,  51
214,  53, 243
215, 243,  52
216,  54, 244
217, 244, 245
218, 245, 246
219, 246,  53
220,  55, 247
221, 247, 248
222, 248, 249
223, 249,  54
224,  56, 250
225, 250, 251
226, 251, 252
227, 252,  55
228,  57, 253
229, 253, 254
230, 254, 255
231, 255,  56
232,  58, 256
233, 256, 257
234, 257, 258
235, 258,  57
236,  59, 259
237, 259, 260
238, 260, 261
239, 261,  58
240,  60, 262
241, 262, 263
242, 263, 264
243, 264,  59
244,  61, 265
245, 265, 266
246, 266, 267
247, 267,  60
248,  62, 268
249, 268, 269
250, 269, 270
251, 270,  61
252,  63, 271
253, 271, 272
254, 272, 273
255, 273,  62
256,  64, 274
257, 274,  63
258,  41, 275
259, 275, 276
260, 276, 277
261, 277,  64
262,  36, 278
263, 278, 279
264, 279, 280
265, 280, 281
266, 281, 282
267, 282, 283
268, 283, 284
269, 284, 285
270, 285, 286
271, 286, 287
272, 287,  34
273, 65, 38
274,  66, 288
275, 288, 289
276, 289, 290
277, 290, 291
278, 291,  65
279, 67, 39
280,  68, 292
281, 292, 293
282, 293, 294
283, 294, 295
284, 295,  67
285, 69, 40
286,  70, 296
287, 296, 297
288, 297, 298
289, 298, 299
290, 299,  69
291,  42, 300
292, 300, 301
293, 301, 302
294, 302, 303
295, 303, 304
296, 304, 305
297, 305, 306
298, 306,  41
299,  71, 307
300, 307,  42
301,  72, 308
302, 308, 309
303, 309, 310
304, 310,  46
305,  38, 311
306, 311, 312
307, 312, 313
308, 313, 314
309, 314, 315
310, 315, 316
311, 316, 317
312, 317, 318
313, 318, 319
314, 319, 320
315, 320, 321
316, 321,  72
317,  73, 322
318, 322, 323
319, 323, 324
320, 324,  52
321,  39, 325
322, 325, 326
323, 326, 327
324, 327, 328
325, 328, 329
326, 329, 330
327, 330, 331
328, 331, 332
329, 332, 333
330, 333, 334
331, 334, 335
332, 335,  73
333,  74, 336
334, 336, 337
335, 337, 338
336, 338,  58
337,  40, 339
338, 339, 340
339, 340, 341
340, 341, 342
341, 342, 343
342, 343, 344
343, 344, 345
344, 345, 346
345, 346, 347
346, 347, 348
347, 348, 349
348, 349,  74
349,  65, 350
350, 350, 351
351, 351, 352
352, 352, 353
353, 353, 354
354, 354, 355
355, 355, 356
356, 356, 357
357, 357, 358
358, 358, 359
359, 359,  75
360,  67, 360
361, 360, 361
362, 361, 362
363, 362, 363
364, 363, 364
365, 364, 365
366, 365, 366
367, 366, 367
368, 367, 368
369, 368, 369
370, 369,  76
371,  69, 370
372, 370, 371
373, 371, 372
374, 372, 373
375, 373, 374
376, 374, 375
377, 375, 376
378, 376, 377
379, 377, 378
380, 378, 379
381, 379,  77
382,  75, 380
383, 380, 381
384, 381, 382
385, 382, 383
386, 383, 384
387, 384, 385
388, 385, 386
389, 386,  72
390,  78, 387
391, 387,  75
392,  76, 388
393, 388, 389
394, 389, 390
395, 390, 391
396, 391, 392
397, 392, 393
398, 393, 394
399, 394,  73
400,  79, 395
401, 395,  76
402,  77, 396
403, 396, 397
404, 397, 398
405, 398, 399
406, 399, 400
407, 400, 401
408, 401, 402
409, 402,  74
410,  80, 403
411, 403,  77
*Nset, nset=P2
   2,   3,   4,   5,  11,  17,  23,  29,  30,  38,  39,  40,  41,  46,  52,  58
  64,  72,  73,  74,  82,  83,  84,  85,  86,  87,  88,  89,  90,  91,  92,  93
  94,  95,  96,  97,  98, 163, 164, 165, 185, 186, 187, 188, 189, 190, 191, 192
 193, 194, 195, 196, 197, 198, 199, 200, 201, 202, 203, 204, 275, 276, 277, 308
 309, 310, 311, 312, 313, 314, 315, 316, 317, 318, 319, 320, 321, 322, 323, 324
 325, 326, 327, 328, 329, 330, 331, 332, 333, 334, 335, 336, 337, 338, 339, 340
 341, 342, 343, 344, 345, 346, 347, 348, 349
*Elset, elset=P2
   3,   4,   5,   6,   7,   8,   9,  10,  11,  12,  13,  14,  15,  16,  17,  18
  19,  20,  21,  22, 111, 112, 113, 114, 141, 142, 143, 144, 145, 146, 147, 148
 149, 150, 151, 152, 153, 154, 155, 156, 157, 158, 159, 160, 161, 162, 163, 164
 258, 259, 260, 261, 301, 302, 303, 304, 305, 306, 307, 308, 309, 310, 311, 312
 313, 314, 315, 316, 317, 318, 319, 320, 321, 322, 323, 324, 325, 326, 327, 328
 329, 330, 331, 332, 333, 334, 335, 336, 337, 338, 339, 340, 341, 342, 343, 344
 345, 346, 347, 348
*Nset, nset=P3
   4,  30,  31,  32,  36,  37,  38,  39,  40,  65,  66,  67,  68,  69,  70, 166
 167, 168, 169, 181, 182, 183, 184, 288, 289, 290, 291, 292, 293, 294, 295, 296
 297, 298, 299
*Elset, elset=P3
 115, 116, 117, 118, 119, 120, 135, 136, 137, 138, 139, 140, 273, 274, 275, 276
 277, 278, 279, 280, 281, 282, 283, 284, 285, 286, 287, 288, 289, 290
*Nset, nset=P4
   3,  34,  35,  41,  42,  71,  72,  73,  74,  75,  76,  77,  78,  79,  80, 173
 174, 175, 176, 177, 178, 179, 180, 300, 301, 302, 303, 304, 305, 306, 307, 380
 381, 382, 383, 384, 385, 386, 387, 388, 389, 390, 391, 392, 393, 394, 395, 396
 397, 398, 399, 400, 401, 402, 403
*Elset, elset=P4
 125, 126, 127, 128, 129, 130, 131, 132, 133, 134, 291, 292, 293, 294, 295, 296
 297, 298, 299, 300, 382, 383, 384, 385, 386, 387, 388, 389, 390, 391, 392, 393
 394, 395, 396, 397, 398, 399, 400, 401, 402, 403, 404, 405, 406, 407, 408, 409
 410, 411
*Nset, nset=P5
   1,   2,   5,   6,   7,   8,   9,  10,  11,  12,  13,  14,  15,  16,  17,  18
  19,  20,  21,  22,  23,  24,  25,  26,  27,  28,  29,  33,  43,  44,  45,  46
  47,  48,  49,  50,  51,  52,  53,  54,  55,  56,  57,  58,  59,  60,  61,  62
  63,  64,  81,  99, 100, 101, 102, 103, 104, 105, 106, 107, 108, 109, 110, 111
 112, 113, 114, 115, 116, 117, 118, 119, 120, 121, 122, 123, 124, 125, 126, 127
 128, 129, 130, 131, 132, 133, 134, 135, 136, 137, 138, 139, 140, 141, 142, 143
 144, 145, 146, 147, 148, 149, 150, 151, 152, 153, 154, 155, 156, 157, 158, 159
 160, 161, 162, 170, 171, 172, 215, 216, 217, 218, 219, 220, 221, 222, 223, 224
 225, 226, 227, 228, 229, 230, 231, 232, 233, 234, 235, 236, 237, 238, 239, 240
 241, 242, 243, 244, 245, 246, 247, 248, 249, 250, 251, 252, 253, 254, 255, 256
 257, 258, 259, 260, 261, 262, 263, 264, 265, 266, 267, 268, 269, 270, 271, 272
 273, 274
*Elset, elset=P5
   1,   2,  23,  24,  25,  26,  27,  28,  29,  30,  31,  32,  33,  34,  35,  36
  37,  38,  39,  40,  41,  42,  43,  44,  45,  46,  47,  48,  49,  50,  51,  52
  53,  54,  55,  56,  57,  58,  59,  60,  61,  62,  63,  64,  65,  66,  67,  68
  69,  70,  71,  72,  73,  74,  75,  76,  77,  78,  79,  80,  81,  82,  83,  84
  85,  86,  87,  88,  89,  90,  91,  92,  93,  94,  95,  96,  97,  98,  99, 100
 101, 102, 103, 104, 105, 106, 107, 108, 109, 110, 121, 122, 123, 124, 176, 177
 178, 179, 180, 181, 182, 183, 184, 185, 186, 187, 188, 189, 190, 191, 192, 193
 194, 195, 196, 197, 198, 199, 200, 201, 202, 203, 204, 205, 206, 207, 208, 209
 210, 211, 212, 213, 214, 215, 216, 217, 218, 219, 220, 221, 222, 223, 224, 225
 226, 227, 228, 229, 230, 231, 232, 233, 234, 235, 236, 237, 238, 239, 240, 241
 242, 243, 244, 245, 246, 247, 248, 249, 250, 251, 252, 253, 254, 255, 256, 257
*Nset, nset=P6
  31,  34,  36,  42,  65,  67,  69,  75,  76,  77, 205, 206, 207, 208, 209, 210
 211, 212, 213, 214, 278, 279, 280, 281, 282, 283, 284, 285, 286, 287, 350, 351
 352, 353, 354, 355, 356, 357, 358, 359, 360, 361, 362, 363, 364, 365, 366, 367
 368, 369, 370, 371, 372, 373, 374, 375, 376, 377, 378, 379
*Elset, elset=P6
 165, 166, 167, 168, 169, 170, 171, 172, 173, 174, 175, 262, 263, 264, 265, 266
 267, 268, 269, 270, 271, 272, 349, 350, 351, 352, 353, 354, 355, 356, 357, 358
 359, 360, 361, 362, 363, 364, 365, 366, 367, 368, 369, 370, 371, 372, 373, 374
 375, 376, 377, 378, 379, 380, 381
** Section: P5  Profile: C100
*Beam Section, elset=P5, material=S235JR, poisson = 0.3, temperature=GRADIENTS, section=ARBITRARY
5, 29.1607, 30., 29.1607, 48., 4.
-16.8393, 48., 4.
-16.8393, -48., 4.
29.1607, -48., 4.
29.1607, -30., 4.
0.,0.906351,0.422525
** Section: P2  Profile: C125
*Beam Section, elset=P2, material=S355JR, poisson = 0.3, temperature=GRADIENTS, section=ARBITRARY
5, 36.9745, 37.5, 36.9745, 60.5, 4.
-21.5255, 60.5, 4.
-21.5255, -60.5, 4.
36.9745, -60.5, 4.
36.9745, -37.5, 4.
1.,0.,0.
** Section: P3  Profile: C125
*Beam Section, elset=P3, material=S235JR, poisson = 0.3, temperature=GRADIENTS, section=ARBITRARY
5, 36.9745, 37.5, 36.9745, 60.5, 4.
-21.5255, 60.5, 4.
-21.5255, -60.5, 4.
36.9745, -60.5, 4.
36.9745, -37.5, 4.
1.,0.,0.
** Section: P4  Profile: C125
*Beam Section, elset=P4, material=S235JR, poisson = 0.3, temperature=GRADIENTS, section=ARBITRARY
5, 36.9745, 37.5, 36.9745, 60.5, 4.
-21.5255, 60.5, 4.
-21.5255, -60.5, 4.
36.9745, -60.5, 4.
36.9745, -37.5, 4.
1.,0.,0.
** Section: P6  Profile: C50
*Beam Section, elset=P6, material=S235JR, poisson = 0.3, temperature=GRADIENTS, section=ARBITRARY
3, 16.875, 22.5, -5.625, 22.5, 5.
-5.625, -22.5, 5.
16.875, -22.5, 5.
1.,0.,0.
*End Part
**  
**
** ASSEMBLY
**
*Assembly, name=Assembly
**  
*Instance, name=FRAME, part=SteelFrame
*End Instance
**  
*Nset, nset=BASES, instance=FRAME
 32, 35, 37, 66, 68, 70, 71, 78, 79, 80
*Nset, nset=CONTACT_ROW_1, instance=FRAME
  6,  7,  8,  9, 10, 11, 12, 13, 14, 15, 16, 18, 19, 20, 21, 22
 23, 24, 25, 26, 27, 28
*Nset, nset=CONTACT_ROW_2, instance=FRAME
  1, 33, 43, 44, 45, 46, 47, 48, 49, 50, 51, 53, 54, 55, 56, 57
 58, 59, 60, 61, 62, 63
*End Assembly
** 
** MATERIALS
** 
*Material, name=S235JR
*Density
 7.85e-09,
*Elastic
210000., 0.3
*Material, name=S355JR
*Density
 7.85e-09,
*Elastic
210000., 0.3
** 
** BOUNDARY CONDITIONS
** 
** Name: GroundFixity Type: Symmetry/Antisymmetry/Encastre
*Boundary
BASES, ENCASTRE
** ----------------------------------------------------------------
** 
** STEP: D
** 
*Step, name=D, nlgeom=NO
*Static
1., 1., 1e-05, 1.
** 
** LOADS
** 
** Name: D_Contact_1   Type: Concentrated force
*Cload, op=NEW
CONTACT_ROW_1, 2, 0.
CONTACT_ROW_1, 3, -253.985
** Name: D_Contact_2   Type: Concentrated force
*Cload, op=NEW
CONTACT_ROW_2, 2, 0.
CONTACT_ROW_2, 3, -253.985
** Name: D_SteelGravity   Type: Gravity
*Dload, op=NEW
, GRAV, 9810., 0., 0., -1.
** 
** OUTPUT REQUESTS
** 
*Restart, write, frequency=0
** 
** FIELD OUTPUT: Nodal
** 
*Output, field, frequency=99999
*Node Output
RF, RM, U
** 
** FIELD OUTPUT: Section_P2
** 
*Element Output, elset=FRAME.P2, directions=YES
1, 2, 3, 4, 5, 6, 7, 8, 9, 10, 11
S, SF
** 
** FIELD OUTPUT: Section_P3
** 
*Element Output, elset=FRAME.P3, directions=YES
1, 2, 3, 4, 5, 6, 7, 8, 9, 10, 11
S, SF
** 
** FIELD OUTPUT: Section_P4
** 
*Element Output, elset=FRAME.P4, directions=YES
1, 2, 3, 4, 5, 6, 7, 8, 9, 10, 11
S, SF
** 
** FIELD OUTPUT: Section_P5
** 
*Element Output, elset=FRAME.P5, directions=YES
1, 2, 3, 4, 5, 6, 7, 8, 9, 10, 11
S, SF
** 
** FIELD OUTPUT: Section_P6
** 
*Element Output, elset=FRAME.P6, directions=YES
1, 2, 3, 4, 5, 6, 7
S, SF
** 
** HISTORY OUTPUT: Energy
** 
*Output, history
*Energy Output
ALLSE, ALLWK
*End Step
** ----------------------------------------------------------------
** 
** STEP: S
** 
*Step, name=S, nlgeom=NO
*Static
1., 1., 1e-05, 1.
** 
** LOADS
** 
** Name: D_Contact_1   Type: Concentrated force
*Cload, op=NEW
** Name: D_Contact_2   Type: Concentrated force
*Cload, op=NEW
** Name: D_SteelGravity   Type: Gravity
*Dload, op=NEW
** Name: S_Contact_1   Type: Concentrated force
*Cload, op=NEW
CONTACT_ROW_1, 2, 0.
CONTACT_ROW_1, 3, -1466.4
** Name: S_Contact_2   Type: Concentrated force
*Cload, op=NEW
CONTACT_ROW_2, 2, 0.
CONTACT_ROW_2, 3, -1466.4
** 
** OUTPUT REQUESTS
** 
*Restart, write, frequency=0
** 
** FIELD OUTPUT: Nodal
** 
*Output, field, frequency=99999
*Node Output
RF, RM, U
** 
** FIELD OUTPUT: Section_P2
** 
*Element Output, elset=FRAME.P2, directions=YES
1, 2, 3, 4, 5, 6, 7, 8, 9, 10, 11
S, SF
** 
** FIELD OUTPUT: Section_P3
** 
*Element Output, elset=FRAME.P3, directions=YES
1, 2, 3, 4, 5, 6, 7, 8, 9, 10, 11
S, SF
** 
** FIELD OUTPUT: Section_P4
** 
*Element Output, elset=FRAME.P4, directions=YES
1, 2, 3, 4, 5, 6, 7, 8, 9, 10, 11
S, SF
** 
** FIELD OUTPUT: Section_P5
** 
*Element Output, elset=FRAME.P5, directions=YES
1, 2, 3, 4, 5, 6, 7, 8, 9, 10, 11
S, SF
** 
** FIELD OUTPUT: Section_P6
** 
*Element Output, elset=FRAME.P6, directions=YES
1, 2, 3, 4, 5, 6, 7
S, SF
** 
** HISTORY OUTPUT: Energy
** 
*Output, history
*Energy Output
ALLSE, ALLWK
*End Step
** ----------------------------------------------------------------
** 
** STEP: W
** 
*Step, name=W, nlgeom=NO
*Static
1., 1., 1e-05, 1.
** 
** LOADS
** 
** Name: S_Contact_1   Type: Concentrated force
*Cload, op=NEW
** Name: S_Contact_2   Type: Concentrated force
*Cload, op=NEW
** Name: W_Contact_1   Type: Concentrated force
*Cload, op=NEW
CONTACT_ROW_1, 2, 71.112
CONTACT_ROW_1, 3, -152.541
** Name: W_Contact_2   Type: Concentrated force
*Cload, op=NEW
CONTACT_ROW_2, 2, 71.112
CONTACT_ROW_2, 3, -152.541
** 
** OUTPUT REQUESTS
** 
*Restart, write, frequency=0
** 
** FIELD OUTPUT: Nodal
** 
*Output, field, frequency=99999
*Node Output
RF, RM, U
** 
** FIELD OUTPUT: Section_P2
** 
*Element Output, elset=FRAME.P2, directions=YES
1, 2, 3, 4, 5, 6, 7, 8, 9, 10, 11
S, SF
** 
** FIELD OUTPUT: Section_P3
** 
*Element Output, elset=FRAME.P3, directions=YES
1, 2, 3, 4, 5, 6, 7, 8, 9, 10, 11
S, SF
** 
** FIELD OUTPUT: Section_P4
** 
*Element Output, elset=FRAME.P4, directions=YES
1, 2, 3, 4, 5, 6, 7, 8, 9, 10, 11
S, SF
** 
** FIELD OUTPUT: Section_P5
** 
*Element Output, elset=FRAME.P5, directions=YES
1, 2, 3, 4, 5, 6, 7, 8, 9, 10, 11
S, SF
** 
** FIELD OUTPUT: Section_P6
** 
*Element Output, elset=FRAME.P6, directions=YES
1, 2, 3, 4, 5, 6, 7
S, SF
** 
** HISTORY OUTPUT: Energy
** 
*Output, history
*Energy Output
ALLSE, ALLWK
*End Step
** ----------------------------------------------------------------
** 
** STEP: D_07S
** 
*Step, name=D_07S, nlgeom=NO
*Static
1., 1., 1e-05, 1.
** 
** LOADS
** 
** Name: D_07S_Contact_1   Type: Concentrated force
*Cload, op=NEW
CONTACT_ROW_1, 2, 0.
CONTACT_ROW_1, 3, -1280.47
** Name: D_07S_Contact_2   Type: Concentrated force
*Cload, op=NEW
CONTACT_ROW_2, 2, 0.
CONTACT_ROW_2, 3, -1280.47
** Name: D_07S_SteelGravity   Type: Gravity
*Dload, op=NEW
, GRAV, 9810., 0., 0., -1.
** Name: W_Contact_1   Type: Concentrated force
*Cload, op=NEW
** Name: W_Contact_2   Type: Concentrated force
*Cload, op=NEW
** 
** OUTPUT REQUESTS
** 
*Restart, write, frequency=0
** 
** FIELD OUTPUT: Nodal
** 
*Output, field, frequency=99999
*Node Output
RF, RM, U
** 
** FIELD OUTPUT: Section_P2
** 
*Element Output, elset=FRAME.P2, directions=YES
1, 2, 3, 4, 5, 6, 7, 8, 9, 10, 11
S, SF
** 
** FIELD OUTPUT: Section_P3
** 
*Element Output, elset=FRAME.P3, directions=YES
1, 2, 3, 4, 5, 6, 7, 8, 9, 10, 11
S, SF
** 
** FIELD OUTPUT: Section_P4
** 
*Element Output, elset=FRAME.P4, directions=YES
1, 2, 3, 4, 5, 6, 7, 8, 9, 10, 11
S, SF
** 
** FIELD OUTPUT: Section_P5
** 
*Element Output, elset=FRAME.P5, directions=YES
1, 2, 3, 4, 5, 6, 7, 8, 9, 10, 11
S, SF
** 
** FIELD OUTPUT: Section_P6
** 
*Element Output, elset=FRAME.P6, directions=YES
1, 2, 3, 4, 5, 6, 7
S, SF
** 
** HISTORY OUTPUT: Energy
** 
*Output, history
*Energy Output
ALLSE, ALLWK
*End Step
** ----------------------------------------------------------------
** 
** STEP: D_S
** 
*Step, name=D_S, nlgeom=NO
*Static
1., 1., 1e-05, 1.
** 
** LOADS
** 
** Name: D_07S_Contact_1   Type: Concentrated force
*Cload, op=NEW
** Name: D_07S_Contact_2   Type: Concentrated force
*Cload, op=NEW
** Name: D_07S_SteelGravity   Type: Gravity
*Dload, op=NEW
** Name: D_S_Contact_1   Type: Concentrated force
*Cload, op=NEW
CONTACT_ROW_1, 2, 0.
CONTACT_ROW_1, 3, -1720.39
** Name: D_S_Contact_2   Type: Concentrated force
*Cload, op=NEW
CONTACT_ROW_2, 2, 0.
CONTACT_ROW_2, 3, -1720.39
** Name: D_S_SteelGravity   Type: Gravity
*Dload, op=NEW
, GRAV, 9810., 0., 0., -1.
** 
** OUTPUT REQUESTS
** 
*Restart, write, frequency=0
** 
** FIELD OUTPUT: Nodal
** 
*Output, field, frequency=99999
*Node Output
RF, RM, U
** 
** FIELD OUTPUT: Section_P2
** 
*Element Output, elset=FRAME.P2, directions=YES
1, 2, 3, 4, 5, 6, 7, 8, 9, 10, 11
S, SF
** 
** FIELD OUTPUT: Section_P3
** 
*Element Output, elset=FRAME.P3, directions=YES
1, 2, 3, 4, 5, 6, 7, 8, 9, 10, 11
S, SF
** 
** FIELD OUTPUT: Section_P4
** 
*Element Output, elset=FRAME.P4, directions=YES
1, 2, 3, 4, 5, 6, 7, 8, 9, 10, 11
S, SF
** 
** FIELD OUTPUT: Section_P5
** 
*Element Output, elset=FRAME.P5, directions=YES
1, 2, 3, 4, 5, 6, 7, 8, 9, 10, 11
S, SF
** 
** FIELD OUTPUT: Section_P6
** 
*Element Output, elset=FRAME.P6, directions=YES
1, 2, 3, 4, 5, 6, 7
S, SF
** 
** HISTORY OUTPUT: Energy
** 
*Output, history
*Energy Output
ALLSE, ALLWK
*End Step
** ----------------------------------------------------------------
** 
** STEP: D_S_W
** 
*Step, name=D_S_W, nlgeom=NO
*Static
1., 1., 1e-05, 1.
** 
** LOADS
** 
** Name: D_S_Contact_1   Type: Concentrated force
*Cload, op=NEW
** Name: D_S_Contact_2   Type: Concentrated force
*Cload, op=NEW
** Name: D_S_SteelGravity   Type: Gravity
*Dload, op=NEW
** Name: D_S_W_Contact_1   Type: Concentrated force
*Cload, op=NEW
CONTACT_ROW_1, 2, 71.112
CONTACT_ROW_1, 3, -1872.93
** Name: D_S_W_Contact_2   Type: Concentrated force
*Cload, op=NEW
CONTACT_ROW_2, 2, 71.112
CONTACT_ROW_2, 3, -1872.93
** Name: D_S_W_SteelGravity   Type: Gravity
*Dload, op=NEW
, GRAV, 9810., 0., 0., -1.
** 
** OUTPUT REQUESTS
** 
*Restart, write, frequency=0
** 
** FIELD OUTPUT: Nodal
** 
*Output, field, frequency=99999
*Node Output
RF, RM, U
** 
** FIELD OUTPUT: Section_P2
** 
*Element Output, elset=FRAME.P2, directions=YES
1, 2, 3, 4, 5, 6, 7, 8, 9, 10, 11
S, SF
** 
** FIELD OUTPUT: Section_P3
** 
*Element Output, elset=FRAME.P3, directions=YES
1, 2, 3, 4, 5, 6, 7, 8, 9, 10, 11
S, SF
** 
** FIELD OUTPUT: Section_P4
** 
*Element Output, elset=FRAME.P4, directions=YES
1, 2, 3, 4, 5, 6, 7, 8, 9, 10, 11
S, SF
** 
** FIELD OUTPUT: Section_P5
** 
*Element Output, elset=FRAME.P5, directions=YES
1, 2, 3, 4, 5, 6, 7, 8, 9, 10, 11
S, SF
** 
** FIELD OUTPUT: Section_P6
** 
*Element Output, elset=FRAME.P6, directions=YES
1, 2, 3, 4, 5, 6, 7
S, SF
** 
** HISTORY OUTPUT: Energy
** 
*Output, history
*Energy Output
ALLSE, ALLWK
*End Step
** ----------------------------------------------------------------
** 
** STEP: D_S_mW
** 
*Step, name=D_S_mW, nlgeom=NO
*Static
1., 1., 1e-05, 1.
** 
** LOADS
** 
** Name: D_S_W_Contact_1   Type: Concentrated force
*Cload, op=NEW
** Name: D_S_W_Contact_2   Type: Concentrated force
*Cload, op=NEW
** Name: D_S_W_SteelGravity   Type: Gravity
*Dload, op=NEW
** Name: D_S_mW_Contact_1   Type: Concentrated force
*Cload, op=NEW
CONTACT_ROW_1, 2, -71.112
CONTACT_ROW_1, 3, -1567.84
** Name: D_S_mW_Contact_2   Type: Concentrated force
*Cload, op=NEW
CONTACT_ROW_2, 2, -71.112
CONTACT_ROW_2, 3, -1567.84
** Name: D_S_mW_SteelGravity   Type: Gravity
*Dload, op=NEW
, GRAV, 9810., 0., 0., -1.
** 
** OUTPUT REQUESTS
** 
*Restart, write, frequency=0
** 
** FIELD OUTPUT: Nodal
** 
*Output, field, frequency=99999
*Node Output
RF, RM, U
** 
** FIELD OUTPUT: Section_P2
** 
*Element Output, elset=FRAME.P2, directions=YES
1, 2, 3, 4, 5, 6, 7, 8, 9, 10, 11
S, SF
** 
** FIELD OUTPUT: Section_P3
** 
*Element Output, elset=FRAME.P3, directions=YES
1, 2, 3, 4, 5, 6, 7, 8, 9, 10, 11
S, SF
** 
** FIELD OUTPUT: Section_P4
** 
*Element Output, elset=FRAME.P4, directions=YES
1, 2, 3, 4, 5, 6, 7, 8, 9, 10, 11
S, SF
** 
** FIELD OUTPUT: Section_P5
** 
*Element Output, elset=FRAME.P5, directions=YES
1, 2, 3, 4, 5, 6, 7, 8, 9, 10, 11
S, SF
** 
** FIELD OUTPUT: Section_P6
** 
*Element Output, elset=FRAME.P6, directions=YES
1, 2, 3, 4, 5, 6, 7
S, SF
** 
** HISTORY OUTPUT: Energy
** 
*Output, history
*Energy Output
ALLSE, ALLWK
*End Step
** ----------------------------------------------------------------
** 
** STEP: C09D_W
** 
*Step, name=C09D_W, nlgeom=NO
*Static
1., 1., 1e-05, 1.
** 
** LOADS
** 
** Name: C09D_W_Contact_1   Type: Concentrated force
*Cload, op=NEW
CONTACT_ROW_1, 2, 71.112
CONTACT_ROW_1, 3, -381.128
** Name: C09D_W_Contact_2   Type: Concentrated force
*Cload, op=NEW
CONTACT_ROW_2, 2, 71.112
CONTACT_ROW_2, 3, -381.128
** Name: C09D_W_SteelGravity   Type: Gravity
*Dload, op=NEW
, GRAV, 8829., 0., 0., -1.
** Name: D_S_mW_Contact_1   Type: Concentrated force
*Cload, op=NEW
** Name: D_S_mW_Contact_2   Type: Concentrated force
*Cload, op=NEW
** Name: D_S_mW_SteelGravity   Type: Gravity
*Dload, op=NEW
** 
** OUTPUT REQUESTS
** 
*Restart, write, frequency=0
** 
** FIELD OUTPUT: Nodal
** 
*Output, field, frequency=99999
*Node Output
RF, RM, U
** 
** FIELD OUTPUT: Section_P2
** 
*Element Output, elset=FRAME.P2, directions=YES
1, 2, 3, 4, 5, 6, 7, 8, 9, 10, 11
S, SF
** 
** FIELD OUTPUT: Section_P3
** 
*Element Output, elset=FRAME.P3, directions=YES
1, 2, 3, 4, 5, 6, 7, 8, 9, 10, 11
S, SF
** 
** FIELD OUTPUT: Section_P4
** 
*Element Output, elset=FRAME.P4, directions=YES
1, 2, 3, 4, 5, 6, 7, 8, 9, 10, 11
S, SF
** 
** FIELD OUTPUT: Section_P5
** 
*Element Output, elset=FRAME.P5, directions=YES
1, 2, 3, 4, 5, 6, 7, 8, 9, 10, 11
S, SF
** 
** FIELD OUTPUT: Section_P6
** 
*Element Output, elset=FRAME.P6, directions=YES
1, 2, 3, 4, 5, 6, 7
S, SF
** 
** HISTORY OUTPUT: Energy
** 
*Output, history
*Energy Output
ALLSE, ALLWK
*End Step
** ----------------------------------------------------------------
** 
** STEP: C09D_mW
** 
*Step, name=C09D_mW, nlgeom=NO
*Static
1., 1., 1e-05, 1.
** 
** LOADS
** 
** Name: C09D_W_Contact_1   Type: Concentrated force
*Cload, op=NEW
** Name: C09D_W_Contact_2   Type: Concentrated force
*Cload, op=NEW
** Name: C09D_W_SteelGravity   Type: Gravity
*Dload, op=NEW
** Name: C09D_mW_Contact_1   Type: Concentrated force
*Cload, op=NEW
CONTACT_ROW_1, 2, -71.112
CONTACT_ROW_1, 3, -76.0451
** Name: C09D_mW_Contact_2   Type: Concentrated force
*Cload, op=NEW
CONTACT_ROW_2, 2, -71.112
CONTACT_ROW_2, 3, -76.0451
** Name: C09D_mW_SteelGravity   Type: Gravity
*Dload, op=NEW
, GRAV, 8829., 0., 0., -1.
** 
** OUTPUT REQUESTS
** 
*Restart, write, frequency=0
** 
** FIELD OUTPUT: Nodal
** 
*Output, field, frequency=99999
*Node Output
RF, RM, U
** 
** FIELD OUTPUT: Section_P2
** 
*Element Output, elset=FRAME.P2, directions=YES
1, 2, 3, 4, 5, 6, 7, 8, 9, 10, 11
S, SF
** 
** FIELD OUTPUT: Section_P3
** 
*Element Output, elset=FRAME.P3, directions=YES
1, 2, 3, 4, 5, 6, 7, 8, 9, 10, 11
S, SF
** 
** FIELD OUTPUT: Section_P4
** 
*Element Output, elset=FRAME.P4, directions=YES
1, 2, 3, 4, 5, 6, 7, 8, 9, 10, 11
S, SF
** 
** FIELD OUTPUT: Section_P5
** 
*Element Output, elset=FRAME.P5, directions=YES
1, 2, 3, 4, 5, 6, 7, 8, 9, 10, 11
S, SF
** 
** FIELD OUTPUT: Section_P6
** 
*Element Output, elset=FRAME.P6, directions=YES
1, 2, 3, 4, 5, 6, 7
S, SF
** 
** HISTORY OUTPUT: Energy
** 
*Output, history
*Energy Output
ALLSE, ALLWK
*End Step
